p cnf 16 210
1 0
-4 0
1 -16 0
1 3 0
7 12 11 8 6 -9 3 4 5 2 0
-4 0
7 10 6 -9 3 4 5 2 0
-3 0
10 13 6 -9 3 4 5 2 0
-2 0
-13 -6 9 0
1 0
7 10 11 8 13 6 -9 3 4 5 2 0
-14 0
1 0
1 -7 0
1 0
7 11 6 -9 3 4 5 2 0
7 8 13 6 -9 3 4 5 2 0
-2 0
-7 -8 0
12 13 6 -9 3 4 5 2 0
7 10 11 8 6 -9 3 4 5 2 0
-10 0
10 8 6 -9 3 4 5 2 0
-5 0
-16 0
10 11 8 6 -9 3 4 5 2 0
-10 -8 0
-13 0
-13 0
1 3 0
-2 0
1 -4 0
-5 0
6 -9 3 4 5 2 0
-2 0
7 12 13 6 -9 3 4 5 2 0
-15 0
-11 0
10 11 13 6 -9 3 4 5 2 0
-16 -4 0
12 10 8 6 -9 3 4 5 2 0
1 0
1 -10 0
9 -3 0
-8 -6 9 0
11 8 6 -9 3 4 5 2 0
-10 0
-16 0
1 -11 0
8 6 -9 3 4 5 2 0
9 -2 0
-16 -2 0
7 12 10 13 6 -9 3 4 5 2 0
7 12 10 8 6 -9 3 4 5 2 0
10 11 6 -9 3 4 5 2 0
11 6 -9 3 4 5 2 0
7 10 11 6 -9 3 4 5 2 0
10 11 8 13 6 -9 3 4 5 2 0
-11 0
7 10 8 6 -9 3 4 5 2 0
-6 16 14 4 5 15 0
1 0
9 -5 0
6 -4 0
12 10 11 8 6 -9 3 4 5 2 0
7 8 6 -9 3 4 5 2 0
-14 -2 0
1 -5 0
12 10 11 13 6 -9 3 4 5 2 0
7 12 10 6 -9 3 4 5 2 0
1 0
-14 0
12 8 6 -9 3 4 5 2 0
11 13 6 -9 3 4 5 2 0
7 -15 0
-8 0
-7 0
-5 0
-16 0
-12 0
-12 0
-4 0
12 10 11 8 13 6 -9 3 4 5 2 0
1 -13 0
7 12 6 -9 3 4 5 2 0
-13 0
1 3 0
-14 0
12 10 8 13 6 -9 3 4 5 2 0
-16 -14 0
-3 0
-11 0
-14 0
8 13 6 -9 3 4 5 2 0
-7 -6 9 0
-12 -10 0
1 0
7 10 11 13 6 -9 3 4 5 2 0
-1 -3 0
-12 0
-15 0
1 -14 0
1 -12 0
-10 -13 0
7 11 8 13 6 -9 3 4 5 2 0
-14 -15 0
7 11 13 6 -9 3 4 5 2 0
1 0
11 8 13 6 -9 3 4 5 2 0
-2 -15 0
7 6 -9 3 4 5 2 0
-10 0
10 8 13 6 -9 3 4 5 2 0
12 11 13 6 -9 3 4 5 2 0
7 12 8 13 6 -9 3 4 5 2 0
1 0
7 12 11 13 6 -9 3 4 5 2 0
12 11 8 13 6 -9 3 4 5 2 0
-16 0
-7 -13 0
1 -16 0
-16 -15 0
7 12 10 11 8 6 -9 3 4 5 2 0
7 13 6 -9 3 4 5 2 0
7 12 11 6 -9 3 4 5 2 0
-16 0
-11 0
1 3 0
-16 0
-14 0
7 12 8 6 -9 3 4 5 2 0
-12 -8 0
-12 -6 9 0
7 10 13 6 -9 3 4 5 2 0
-2 0
7 11 8 6 -9 3 4 5 2 0
6 -16 0
-16 -5 0
-11 -6 9 0
-16 0
-7 -10 0
9 -4 0
7 12 10 8 13 6 -9 3 4 5 2 0
7 12 10 11 6 -9 3 4 5 2 0
-16 0
-12 0
-14 0
-11 0
-13 0
12 11 6 -9 3 4 5 2 0
7 10 8 13 6 -9 3 4 5 2 0
-14 0
-10 -6 9 0
-5 0
-5 0
7 12 11 8 13 6 -9 3 4 5 2 0
-11 -13 0
1 0
1 3 0
6 -15 0
-13 0
-12 0
-8 0
-8 -13 0
12 8 13 6 -9 3 4 5 2 0
-14 0
7 12 10 11 8 13 -9 3 4 5 2 0
1 -8 0
-4 -5 0
-15 0
-7 0
1 3 2 0
-10 -11 0
-7 -14 0
6 -5 0
-2 0
12 11 8 6 -9 3 4 5 2 0
12 10 13 6 -9 3 4 5 2 0
6 -14 0
-7 -11 0
-11 -8 0
-7 -12 0
12 10 6 -9 3 4 5 2 0
13 6 -9 3 4 5 2 0
-7 0
-10 0
-12 -11 0
-8 0
-3 0
-12 -13 0
-4 0
1 -15 0
7 12 10 11 13 6 -9 3 4 5 2 0
-10 0
-4 0
-4 -5 0
-2 0
12 10 11 6 -9 3 4 5 2 0
-4 0
-5 0
1 0
-16 0
12 6 -9 3 4 5 2 0
10 6 -9 3 4 5 2 0
1 0
-3 0
-2 0
1 0
