p cnf 16 176
15 14 0
2 0
2 0
16 0
5 0
1 0
-9 12 3 7 4 11 0
1 0
16 0
13 0
2 0
8 0
1 0
2 0
1 0
16 0
7 0
9 -4 0
9 -4 -11 0
1 0
10 -3 -4 0
13 0
6 0
8 0
10 -11 0
13 0
1 0
13 0
13 0
5 0
2 0
8 0
9 -3 -11 0
2 0
2 0
10 -7 -11 0
16 0
3 0
5 0
3 0
5 0
9 -7 -11 0
10 -7 -4 0
6 0
1 0
16 0
10 -12 0
1 0
9 -12 -3 0
5 0
1 0
2 0
8 0
5 0
13 0
6 0
8 0
16 0
9 -3 0
10 -12 -3 0
1 0
6 0
5 0
8 0
16 0
6 0
1 0
1 0
8 0
3 0
8 0
16 0
16 0
6 0
10 -12 -11 0
2 0
5 0
2 0
10 -3 0
5 0
1 0
-4 -11 0
5 0
5 0
1 5 0
13 0
9 -3 -7 0
1 0
6 0
16 0
13 0
6 0
2 0
6 0
1 0
5 0
6 0
14 0
8 0
14 0
13 0
8 0
9 -12 -11 0
5 0
13 0
8 0
10 -7 0
10 -3 -7 0
13 0
2 0
13 0
2 0
9 -11 0
6 0
10 -12 -4 0
15 14 0
2 0
9 -12 0
8 0
-7 -4 0
8 0
9 -7 0
1 0
6 0
12 0
6 0
6 0
3 0
14 0
6 0
8 0
2 0
9 -12 -4 0
2 0
-15 14 0
2 0
5 0
16 0
9 -7 -4 0
10 -4 -11 0
5 0
-4 0
3 7 11 0
14 0
13 0
8 0
12 0
6 0
13 0
9 -12 -7 0
9 -3 -4 0
15 14 0
6 0
1 0
10 -4 0
-12 -4 0
16 0
3 7 11 0
2 0
1 0
2 0
-3 -4 0
8 0
2 0
2 0
7 0
1 5 0
8 0
8 0
7 0
5 0
13 0
1 0
10 -3 -11 0
10 -12 -7 0
-10 12 3 7 4 11 0
