p cnf 8 64
2 -7 0
2 -7 0
1 -3 4 0
3 4 -7 -8 0
1 -3 4 0
-1 4 5 0
-1 4 5 0
2 -7 0
3 4 -7 -8 0
3 4 -7 -8 0
3 4 -7 -8 0
2 4 -6 8 0
2 4 -6 8 0
2 -7 0
-1 4 5 0
-1 4 5 0
3 4 -7 -8 0
2 4 -6 8 0
2 -7 0
2 -7 0
1 -3 4 0
1 -3 4 0
2 -7 0
2 4 -6 8 0
-1 4 5 0
-2 0
-1 4 5 0
2 4 -6 8 0
-1 4 5 0
2 4 -6 8 0
3 4 -7 -8 0
3 4 -7 -8 0
3 4 -7 -8 0
3 4 -7 -8 0
-2 0
2 -7 0
-2 0
-2 0
2 4 -6 8 0
3 4 -7 -8 0
2 4 -6 8 0
2 4 -6 8 0
-1 4 5 0
-1 4 5 0
2 4 -6 8 0
3 4 -7 -8 0
2 -7 0
-1 4 5 0
1 -3 4 0
-1 4 5 0
-1 4 5 0
2 4 -6 8 0
3 4 -7 -8 0
-1 4 5 0
-2 0
3 4 -7 -8 0
-2 0
-1 4 5 0
-2 0
-2 0
2 -7 0
-2 0
-1 4 5 0
2 -7 0
