p cnf 12 287
-10 0
-8 0
-4 0
-2 0
-5 0
6 0
6 0
6 0
6 0
6 0
6 0
6 0
6 0
6 0
6 0
6 0
-3 0
-9 0
-7 0
-11 0
-12 0
-7 -9 0
-11 -9 0
-9 -12 0
-11 -7 0
-7 -12 0
-11 -12 0
-1 0
-1 0
-1 0
-1 3 0
-1 0
-1 0
-1 11 7 9 12 -3 0
-1 7 9 12 -3 0
-1 7 9 12 -3 0
-1 11 7 9 12 -3 0
-1 7 9 12 -3 0
-1 7 9 12 -3 0
-1 11 7 9 12 -3 0
-1 7 9 12 -3 0
-1 7 9 12 -3 0
-1 11 9 12 -3 0
-1 9 12 -3 0
-1 9 12 -3 0
-1 11 9 12 -3 0
-1 9 12 -3 0
-1 9 12 -3 0
-1 11 9 12 -3 0
-1 9 12 -3 0
-1 9 12 -3 0
-1 11 9 12 -3 0
-1 9 12 -3 0
-1 9 12 -3 0
-1 11 9 12 -3 0
-1 9 12 -3 0
-1 9 12 -3 0
-1 11 9 12 -3 0
-1 9 12 -3 0
-1 9 12 -3 0
-1 11 7 12 -3 0
-1 7 12 -3 0
-1 7 12 -3 0
-1 11 7 12 -3 0
-1 7 12 -3 0
-1 7 12 -3 0
-1 11 7 12 -3 0
-1 7 12 -3 0
-1 7 12 -3 0
-1 11 12 -3 0
-1 12 -3 0
-1 12 -3 0
-1 11 12 -3 0
-1 12 -3 0
-1 12 -3 0
-1 11 12 -3 0
-1 12 -3 0
-1 12 -3 0
-1 11 12 -3 0
-1 12 -3 0
-1 12 -3 0
-1 11 12 -3 0
-1 12 -3 0
-1 12 -3 0
-1 11 12 -3 0
-1 12 -3 0
-1 12 -3 0
-1 11 7 12 -3 0
-1 7 12 -3 0
-1 7 12 -3 0
-1 11 7 12 -3 0
-1 7 12 -3 0
-1 7 12 -3 0
-1 11 7 12 -3 0
-1 7 12 -3 0
-1 7 12 -3 0
-1 11 12 -3 0
-1 12 -3 0
-1 12 -3 0
-1 11 12 -3 0
-1 12 -3 0
-1 12 -3 0
-1 11 12 -3 0
-1 12 -3 0
-1 12 -3 0
-1 11 12 -3 0
-1 12 -3 0
-1 12 -3 0
-1 11 12 -3 0
-1 12 -3 0
-1 12 -3 0
-1 11 12 -3 0
-1 12 -3 0
-1 12 -3 0
-1 11 7 9 -3 0
-1 11 7 9 -3 0
-1 7 9 -3 0
-1 7 9 -3 0
-1 7 9 -3 0
-1 7 9 -3 0
-1 11 7 9 -3 0
-1 11 7 9 -3 0
-1 7 9 -3 0
-1 7 9 -3 0
-1 7 9 -3 0
-1 7 9 -3 0
-1 11 7 9 -3 0
-1 11 7 9 -3 0
-1 7 9 -3 0
-1 7 9 -3 0
-1 7 9 -3 0
-1 7 9 -3 0
-1 11 9 -3 0
-1 11 9 -3 0
-1 9 -3 0
-1 9 -3 0
-1 9 -3 0
-1 9 -3 0
-1 11 9 -3 0
-1 11 9 -3 0
-1 9 -3 0
-1 9 -3 0
-1 9 -3 0
-1 9 -3 0
-1 11 9 -3 0
-1 11 9 -3 0
-1 9 -3 0
-1 9 -3 0
-1 9 -3 0
-1 9 -3 0
-1 11 9 -3 0
-1 11 9 -3 0
-1 9 -3 0
-1 9 -3 0
-1 9 -3 0
-1 9 -3 0
-1 11 9 -3 0
-1 11 9 -3 0
-1 9 -3 0
-1 9 -3 0
-1 9 -3 0
-1 9 -3 0
-1 11 9 -3 0
-1 11 9 -3 0
-1 9 -3 0
-1 9 -3 0
-1 9 -3 0
-1 9 -3 0
-1 11 7 -3 0
-1 11 7 -3 0
-1 7 -3 0
-1 7 -3 0
-1 7 -3 0
-1 7 -3 0
-1 11 7 -3 0
-1 11 7 -3 0
-1 7 -3 0
-1 7 -3 0
-1 7 -3 0
-1 7 -3 0
-1 11 7 -3 0
-1 11 7 -3 0
-1 7 -3 0
-1 7 -3 0
-1 7 -3 0
-1 7 -3 0
-1 11 -3 0
-1 11 -3 0
-1 -3 0
-1 -3 0
-1 -3 0
-1 -3 0
-1 11 -3 0
-1 11 -3 0
-1 -3 0
-1 -3 0
-1 -3 0
-1 -3 0
-1 11 -3 0
-1 11 -3 0
-1 -3 0
-1 -3 0
-1 -3 0
-1 -3 0
-1 11 -3 0
-1 11 -3 0
-1 -3 0
-1 -3 0
-1 -3 0
-1 -3 0
-1 11 -3 0
-1 11 -3 0
-1 -3 0
-1 -3 0
-1 -3 0
-1 -3 0
-1 11 -3 0
-1 11 -3 0
-1 -3 0
-1 -3 0
-1 -3 0
-1 -3 0
-1 11 7 -3 0
-1 11 7 -3 0
-1 7 -3 0
-1 7 -3 0
-1 7 -3 0
-1 7 -3 0
-1 11 7 -3 0
-1 11 7 -3 0
-1 7 -3 0
-1 7 -3 0
-1 7 -3 0
-1 7 -3 0
-1 11 7 -3 0
-1 11 7 -3 0
-1 7 -3 0
-1 7 -3 0
-1 7 -3 0
-1 7 -3 0
-1 11 -3 0
-1 11 -3 0
-1 -3 0
-1 -3 0
-1 -3 0
-1 -3 0
-1 11 -3 0
-1 11 -3 0
-1 -3 0
-1 -3 0
-1 -3 0
-1 -3 0
-1 11 -3 0
-1 11 -3 0
-1 -3 0
-1 -3 0
-1 -3 0
-1 -3 0
-1 11 -3 0
-1 11 -3 0
-1 -3 0
-1 -3 0
-1 -3 0
-1 -3 0
-1 11 -3 0
-1 11 -3 0
-1 -3 0
-1 -3 0
-1 -3 0
-1 -3 0
-1 11 -3 0
-1 11 -3 0
-1 -3 0
-1 -3 0
-1 -3 0
-1 -3 0
-1 0
-1 0
-1 0
-1 0
-1 0
-1 0
-1 0
-1 0
-1 0
-1 0
-1 0
