p cnf 16 248
-12 -14 0
-12 -9 0
1 -11 -14 0
-6 -13 0
1 -7 -9 0
1 -12 -14 0
1 -3 -8 0
-6 -14 0
-4 -9 0
1 -7 -12 0
1 -13 -11 0
1 -3 -14 0
-6 -16 0
1 -15 -16 0
10 -1 -13 0
1 -14 0
-12 -5 0
2 -1 -4 0
-1 -14 0
2 -1 -3 -9 0
1 -12 0
2 10 -1 -9 0
10 -1 -14 0
2 -1 -6 -8 0
2 10 -1 -8 0
1 -3 -5 0
1 -7 -5 0
-11 0
1 -5 0
1 -14 -16 0
-7 -8 0
-1 -8 0
2 -1 -8 0
1 0
-6 -12 0
-16 -9 0
1 -11 0
2 -1 -6 -3 0
7 11 0
1 -7 -4 0
-15 -14 0
1 -16 -9 0
-6 -5 0
1 -4 -5 0
-4 -14 0
2 -1 -5 0
1 -11 -9 0
1 -13 -5 0
1 -16 -5 0
1 -3 -16 0
1 -6 0
1 -4 -14 0
-15 -4 0
-1 -16 0
1 -4 -9 0
-1 -8 0
2 -1 -3 0
2 10 -1 -4 0
2 -1 -4 -5 0
-1 -6 0
-16 -5 0
-6 -8 0
-1 -9 0
1 -7 -14 0
-4 -3 0
-1 -3 0
-6 -11 0
2 -10 -1 -4 0
-12 -15 0
1 -13 -9 0
1 -11 -5 0
-1 -16 0
2 -1 -4 -8 0
-6 -7 0
-6 -9 0
-7 -12 0
-12 0
-1 -15 0
2 -1 -9 0
1 -12 -8 0
1 -4 0
-1 -4 0
-11 -16 0
1 -13 -3 0
2 -10 -1 -9 0
1 -12 -11 0
1 -9 0
2 -10 -1 -8 0
-8 -9 0
1 -6 -9 0
1 -12 -13 0
1 -4 -8 0
-7 -14 0
7 0
1 -5 -9 0
2 0
-15 -11 0
-7 -4 0
-8 -14 0
-15 -16 0
1 -6 -7 0
6 7 12 15 13 4 3 8 11 14 16 5 9 0
10 -1 -16 0
1 -6 -11 0
-12 -4 0
1 -15 -13 0
-3 -9 0
-7 -3 0
2 -1 -8 0
-3 -11 0
1 -3 -11 0
-3 -14 0
-15 -9 0
-13 -4 0
-13 -9 0
-7 -5 0
1 -8 -14 0
1 -13 -16 0
1 -6 -15 0
-7 -9 0
2 -1 -8 -5 0
-7 -16 0
1 -15 -5 0
1 -7 -15 0
2 -1 -5 -9 0
-14 -9 0
1 -16 0
7 0
-12 -8 0
1 -13 -14 0
1 -4 -16 0
2 10 0
1 -6 -4 0
-12 -11 0
2 10 -1 -5 0
-12 -3 0
1 -8 -5 0
1 -13 0
-6 -15 0
1 -15 -11 0
1 -15 0
2 -1 -4 -3 0
2 -10 0
-15 -8 0
2 10 -1 -6 0
-6 -3 0
1 -6 -5 0
2 -1 -4 0
2 -1 -9 0
1 -14 -5 0
1 -14 -9 0
2 -1 -3 -8 0
1 -6 -14 0
7 13 3 11 5 0
-14 -5 0
1 -3 0
1 -12 -5 0
2 -1 -4 -9 0
-13 -16 0
1 -4 -3 0
-10 1 0
1 -6 -13 0
1 -3 -9 0
-1 -14 0
2 -10 -1 -5 0
1 -6 -8 0
-8 -11 0
-5 -9 0
-8 -5 0
1 -13 -4 0
-15 -3 0
2 -1 -3 -5 0
1 -12 -9 0
2 -10 -1 -6 0
1 -8 -11 0
1 -15 -4 0
-1 -4 0
1 -11 -16 0
10 -1 -15 0
-15 -13 0
1 -7 -3 0
1 -8 -9 0
-10 15 13 14 16 0
-7 -15 0
1 -8 0
-15 0
1 -8 -16 0
1 -7 -11 0
-4 -8 0
1 -6 -16 0
2 -1 -6 0
-11 -14 0
-4 -5 0
-13 -5 0
2 -1 -6 -9 0
2 -1 -3 0
-4 -11 0
-1 -16 0
-1 -4 0
-3 -8 0
-3 -5 0
2 -1 -5 0
-12 -16 0
1 -15 -3 0
1 -12 -16 0
-13 -3 0
-14 -16 0
-8 -16 0
1 -13 -8 0
1 -7 -16 0
1 -12 -4 0
1 -7 0
7 0
-1 -6 0
-5 0
-1 -14 0
2 -1 -6 -5 0
2 -1 -6 -4 0
1 -12 -15 0
1 -4 -11 0
2 -10 -1 -3 0
-4 -16 0
-3 -16 0
2 -1 -6 0
1 -15 -14 0
-11 -5 0
-3 0
1 -6 -3 0
1 -15 -8 0
-13 -14 0
2 -1 -8 -9 0
2 10 -1 -3 0
-6 -4 0
-7 -11 0
1 -15 -9 0
-7 -13 0
-11 0
1 -7 -13 0
1 -12 -3 0
-15 -5 0
-13 -11 0
-13 -8 0
-1 6 7 12 15 13 4 3 8 11 14 16 5 9 0
-11 -9 0
1 -7 -8 0
1 -6 -12 0
2 0
-12 -13 0
