p cnf 8 256
-7 0
-6 0
4 0
2 0
-5 0
-3 0
-8 0
-1 0
-1 0
2 0
4 0
-1 3 0
-1 8 -3 0
-1 8 -3 0
-1 8 -3 0
-1 8 -3 0
-1 8 -3 0
-1 8 -3 0
-1 8 -3 0
-1 8 -3 0
-1 8 -3 0
-1 -3 0
-1 -3 0
-1 -3 0
-1 -3 0
-1 -3 0
-1 -3 0
-1 -3 0
-1 -3 0
-1 -3 0
-1 -3 0
-1 -3 0
-1 -3 0
-1 -3 0
-1 -3 0
-1 -3 0
-1 -3 0
-1 -3 0
-1 -3 0
-1 8 -3 0
-1 8 -3 0
-1 8 -3 0
-1 8 -3 0
-1 8 -3 0
-1 8 -3 0
-1 8 -3 0
-1 8 -3 0
-1 8 -3 0
-1 -3 0
-1 -3 0
-1 -3 0
-1 -3 0
-1 -3 0
-1 -3 0
-1 -3 0
-1 -3 0
-1 -3 0
-1 -3 0
-1 -3 0
-1 -3 0
-1 -3 0
-1 -3 0
-1 -3 0
-1 -3 0
-1 -3 0
-1 -3 0
-1 8 -3 0
-1 8 -3 0
-1 8 -3 0
-1 8 -3 0
-1 8 -3 0
-1 8 -3 0
-1 8 -3 0
-1 8 -3 0
-1 8 -3 0
-1 -3 0
-1 -3 0
-1 -3 0
-1 -3 0
-1 -3 0
-1 -3 0
-1 -3 0
-1 -3 0
-1 -3 0
-1 -3 0
-1 -3 0
-1 -3 0
-1 -3 0
-1 -3 0
-1 -3 0
-1 -3 0
-1 -3 0
-1 -3 0
-1 8 -3 0
-1 8 -3 0
-1 8 -3 0
-1 8 -3 0
-1 8 -3 0
-1 8 -3 0
-1 8 -3 0
-1 8 -3 0
-1 8 -3 0
-1 8 -3 0
-1 8 -3 0
-1 8 -3 0
-1 8 -3 0
-1 8 -3 0
-1 8 -3 0
-1 8 -3 0
-1 8 -3 0
-1 8 -3 0
-1 -3 0
-1 -3 0
-1 -3 0
-1 -3 0
-1 -3 0
-1 -3 0
-1 -3 0
-1 -3 0
-1 -3 0
-1 -3 0
-1 -3 0
-1 -3 0
-1 -3 0
-1 -3 0
-1 -3 0
-1 -3 0
-1 -3 0
-1 -3 0
-1 -3 0
-1 -3 0
-1 -3 0
-1 -3 0
-1 -3 0
-1 -3 0
-1 -3 0
-1 -3 0
-1 -3 0
-1 -3 0
-1 -3 0
-1 -3 0
-1 -3 0
-1 -3 0
-1 -3 0
-1 -3 0
-1 -3 0
-1 -3 0
-1 8 -3 0
-1 8 -3 0
-1 8 -3 0
-1 8 -3 0
-1 8 -3 0
-1 8 -3 0
-1 8 -3 0
-1 8 -3 0
-1 8 -3 0
-1 8 -3 0
-1 8 -3 0
-1 8 -3 0
-1 8 -3 0
-1 8 -3 0
-1 8 -3 0
-1 8 -3 0
-1 8 -3 0
-1 8 -3 0
-1 -3 0
-1 -3 0
-1 -3 0
-1 -3 0
-1 -3 0
-1 -3 0
-1 -3 0
-1 -3 0
-1 -3 0
-1 -3 0
-1 -3 0
-1 -3 0
-1 -3 0
-1 -3 0
-1 -3 0
-1 -3 0
-1 -3 0
-1 -3 0
-1 -3 0
-1 -3 0
-1 -3 0
-1 -3 0
-1 -3 0
-1 -3 0
-1 -3 0
-1 -3 0
-1 -3 0
-1 -3 0
-1 -3 0
-1 -3 0
-1 -3 0
-1 -3 0
-1 -3 0
-1 -3 0
-1 -3 0
-1 -3 0
-1 8 -3 0
-1 8 -3 0
-1 8 -3 0
-1 8 -3 0
-1 8 -3 0
-1 8 -3 0
-1 8 -3 0
-1 8 -3 0
-1 8 -3 0
-1 8 -3 0
-1 8 -3 0
-1 8 -3 0
-1 8 -3 0
-1 8 -3 0
-1 8 -3 0
-1 8 -3 0
-1 8 -3 0
-1 8 -3 0
-1 -3 0
-1 -3 0
-1 -3 0
-1 -3 0
-1 -3 0
-1 -3 0
-1 -3 0
-1 -3 0
-1 -3 0
-1 -3 0
-1 -3 0
-1 -3 0
-1 -3 0
-1 -3 0
-1 -3 0
-1 -3 0
-1 -3 0
-1 -3 0
-1 -3 0
-1 -3 0
-1 -3 0
-1 -3 0
-1 -3 0
-1 -3 0
-1 -3 0
-1 -3 0
-1 -3 0
-1 -3 0
-1 -3 0
-1 -3 0
-1 -3 0
-1 -3 0
-1 -3 0
-1 -3 0
-1 -3 0
-1 -3 0
-1 -3 0
