p cnf 12 96
4 -9 0
-10 11 12 0
-3 6 10 0
3 -12 0
4 5 -6 -12 0
-1 4 9 0
7 8 -11 0
-1 -4 -5 11 0
-1 4 9 0
-2 4 6 -8 0
-2 7 -9 0
7 0
-11 0
-6 8 -10 0
1 11 0
7 8 -11 0
2 -7 8 -12 0
-12 0
7 0
7 0
4 -5 -6 0
-2 3 8 12 0
4 -5 -6 0
-1 4 9 0
-6 -7 0
-4 8 -12 0
1 6 0
9 10 0
7 8 -11 0
4 5 7 0
4 5 7 0
-2 -4 -10 0
-2 3 8 12 0
-7 -12 0
-5 0
3 -11 0
7 8 -11 0
-10 11 12 0
4 0
-1 4 0
3 -11 0
1 11 0
-4 -5 0
-1 -3 5 6 0
-6 -7 0
1 2 -4 0
-6 -9 0
-1 -4 -5 11 0
1 11 0
-2 -4 -10 0
4 5 -6 0
-2 4 6 -8 0
-2 -4 -10 0
2 0
-4 -5 0
-1 -12 0
-12 0
-2 4 -10 12 0
-6 0
-11 0
-10 11 12 0
2 -7 8 -12 0
-6 -9 0
-6 0
-6 0
5 -8 -10 0
1 5 0
4 0
9 10 0
4 0
5 -8 -10 0
-6 -9 0
-3 6 10 0
-5 6 0
-3 -5 10 0
-6 -8 0
-8 -11 0
-6 0
-10 11 12 0
-1 -3 5 6 0
-6 -8 0
-6 -7 0
-3 -5 10 0
2 -4 9 0
2 4 12 0
4 -5 -6 0
-2 4 6 -8 0
4 -5 -6 0
7 0
4 -9 0
-1 4 9 0
-1 6 -10 -12 0
3 -12 0
4 5 -6 0
-4 -5 0
1 2 -11 0
