p cnf 12 148
-12 -9 0
1 -7 -9 0
1 -3 -8 0
-4 -9 0
1 -7 -12 0
-12 -5 0
2 -1 -4 0
2 -1 -3 -9 0
1 -12 0
2 10 -1 -9 0
2 -1 -6 -8 0
2 10 -1 -8 0
1 -3 -5 0
1 -7 -5 0
-11 0
1 -5 0
-7 -8 0
-1 -8 0
2 -1 -8 0
1 0
-6 -12 0
1 -11 0
2 -1 -6 -3 0
7 11 0
1 -7 -4 0
-6 -5 0
1 -4 -5 0
2 -1 -5 0
1 -11 -9 0
1 -6 0
1 -4 -9 0
-1 -8 0
2 -1 -3 0
2 10 -1 -4 0
2 -1 -4 -5 0
-1 -6 0
-6 -8 0
-1 -9 0
-4 -3 0
-1 -3 0
-6 -11 0
2 -10 -1 -4 0
1 -11 -5 0
2 -1 -4 -8 0
-6 -7 0
-6 -9 0
-7 -12 0
-12 0
2 -1 -9 0
1 -12 -8 0
1 -4 0
-1 -4 0
2 -10 -1 -9 0
1 -12 -11 0
1 -9 0
2 -10 -1 -8 0
-8 -9 0
1 -6 -9 0
1 -4 -8 0
7 0
1 -5 -9 0
2 0
-7 -4 0
1 -6 -7 0
6 7 12 4 3 8 11 5 9 0
1 -6 -11 0
-12 -4 0
-3 -9 0
-7 -3 0
2 -1 -8 0
-3 -11 0
1 -3 -11 0
-7 -5 0
-7 -9 0
2 -1 -8 -5 0
2 -1 -5 -9 0
7 0
-12 -8 0
2 10 0
1 -6 -4 0
-12 -11 0
2 10 -1 -5 0
-12 -3 0
1 -8 -5 0
2 -1 -4 -3 0
2 -10 0
2 10 -1 -6 0
-6 -3 0
1 -6 -5 0
2 -1 -4 0
2 -1 -9 0
2 -1 -3 -8 0
7 3 11 5 0
1 -3 0
1 -12 -5 0
2 -1 -4 -9 0
1 -4 -3 0
-10 1 0
1 -3 -9 0
2 -10 -1 -5 0
1 -6 -8 0
-8 -11 0
-5 -9 0
-8 -5 0
2 -1 -3 -5 0
1 -12 -9 0
2 -10 -1 -6 0
1 -8 -11 0
-1 -4 0
1 -7 -3 0
1 -8 -9 0
-10 0
1 -8 0
1 -7 -11 0
-4 -8 0
2 -1 -6 0
-4 -5 0
2 -1 -6 -9 0
2 -1 -3 0
-4 -11 0
-1 -4 0
-3 -8 0
-3 -5 0
2 -1 -5 0
1 -12 -4 0
1 -7 0
7 0
-1 -6 0
-5 0
2 -1 -6 -5 0
2 -1 -6 -4 0
1 -4 -11 0
2 -10 -1 -3 0
2 -1 -6 0
-11 -5 0
-3 0
1 -6 -3 0
2 -1 -8 -9 0
2 10 -1 -3 0
-6 -4 0
-7 -11 0
-11 0
1 -12 -3 0
-1 6 7 12 4 3 8 11 5 9 0
-11 -9 0
1 -7 -8 0
1 -6 -12 0
2 0
