p cnf 8 628
3 0
1 0
2 0
3 0
2 0
3 0
2 0
2 0
1 0
3 0
1 0
2 0
1 0
2 0
3 0
2 0
2 0
2 0
3 0
-5 -7 0
1 0
2 0
3 0
2 0
2 0
3 0
3 0
1 0
3 0
2 0
2 0
1 0
1 0
3 0
2 0
3 0
1 0
3 0
1 0
2 0
1 0
3 0
2 0
2 0
1 0
1 0
2 0
1 0
1 0
3 0
1 0
1 0
1 0
1 0
2 0
1 0
2 0
1 0
1 0
2 0
1 0
3 0
3 0
3 0
3 0
2 0
1 0
2 0
1 0
1 0
1 0
2 0
2 0
3 0
2 0
1 0
3 0
3 0
1 0
3 0
3 0
2 0
1 0
2 0
2 0
2 0
2 0
1 0
1 0
1 0
3 0
1 0
1 0
1 0
3 0
1 0
3 0
1 0
1 0
1 0
1 0
2 0
1 0
2 0
1 0
1 0
1 0
2 0
3 0
2 0
2 0
2 0
3 0
4 -7 0
2 0
3 0
3 0
2 0
1 0
1 0
1 0
1 0
3 0
2 0
2 0
1 0
2 0
2 0
1 0
2 0
2 0
1 0
2 0
2 0
2 0
1 0
2 0
3 0
1 0
3 0
2 0
1 0
1 0
3 0
3 0
3 0
1 0
2 0
1 0
1 0
2 0
3 0
1 0
2 0
3 0
3 0
1 0
2 0
2 0
3 0
1 0
1 0
1 0
3 0
3 0
3 0
1 0
2 0
3 0
2 0
2 0
1 0
3 0
3 0
2 0
2 0
1 0
2 0
2 0
2 0
1 0
1 0
3 0
1 0
2 0
2 0
3 0
3 0
1 0
3 0
2 0
1 0
3 0
1 0
3 0
3 0
2 0
2 0
3 0
2 0
3 0
2 0
2 0
2 0
2 0
1 0
2 0
3 0
3 0
3 0
1 0
3 0
1 0
1 0
3 0
2 0
1 0
1 0
1 0
3 0
2 0
3 0
2 0
1 0
3 0
1 0
3 0
3 0
1 0
3 0
2 0
3 0
2 0
2 0
2 0
3 0
1 0
2 0
1 0
2 0
2 0
1 0
2 0
3 0
2 0
3 0
2 0
1 0
3 0
3 0
1 0
1 0
3 0
2 0
3 0
3 0
2 0
3 0
2 0
3 0
1 0
2 0
2 0
2 0
3 0
3 0
2 0
2 0
1 0
1 0
2 0
2 0
3 0
2 0
2 0
3 0
2 0
3 0
1 0
3 0
1 0
2 0
2 0
1 0
1 0
3 0
3 0
3 0
3 0
1 0
2 0
2 0
3 0
1 0
2 0
2 0
3 0
1 0
3 0
1 0
1 0
3 0
3 0
-8 -6 0
1 0
2 0
2 0
2 0
1 0
3 0
-4 8 5 7 6 0
1 0
1 0
2 0
1 0
1 0
1 0
2 0
3 0
2 0
3 0
3 0
2 0
2 0
2 0
3 0
3 0
1 0
1 0
1 0
2 0
1 0
2 0
2 0
2 0
1 0
2 0
1 0
3 0
2 0
1 0
2 0
2 0
1 0
3 0
3 0
1 0
1 0
1 0
3 0
1 0
1 0
3 0
2 0
1 0
3 0
2 0
1 0
3 0
1 0
1 0
1 0
2 0
1 0
1 0
1 0
3 0
3 0
2 0
1 0
1 0
2 0
3 0
2 0
1 0
3 0
1 0
3 0
3 0
2 0
2 0
3 0
2 0
2 0
2 0
2 0
2 0
1 0
2 0
1 0
1 0
1 0
3 0
3 0
1 0
1 0
1 0
2 0
2 0
3 0
2 0
3 0
2 0
3 0
2 0
2 0
2 0
1 0
-5 -6 0
2 0
1 0
3 0
1 0
1 0
2 0
1 0
2 -4 0
2 0
3 0
2 0
2 0
4 -8 0
1 0
1 0
3 0
3 0
1 0
2 0
3 0
3 0
2 0
1 0
3 0
1 0
3 0
3 0
-8 -5 0
2 0
3 0
1 0
2 0
3 0
3 0
2 0
1 0
2 0
3 0
3 0
1 0
3 0
2 0
1 0
3 0
3 0
1 0
1 0
2 0
2 0
3 0
1 0
3 0
3 0
2 0
3 0
1 0
1 0
2 0
3 0
1 0
3 0
1 0
3 0
2 0
1 0
1 0
1 0
1 0
1 0
1 0
3 0
2 0
1 0
2 0
2 0
2 0
1 0
2 0
3 0
2 0
1 0
3 0
1 0
1 0
1 0
4 -6 0
1 0
1 0
3 0
2 0
2 0
2 0
3 0
2 0
1 0
1 0
1 0
3 0
3 0
1 0
3 0
2 0
2 0
1 0
1 0
3 0
3 0
3 0
2 0
2 0
2 0
3 0
2 0
2 0
1 0
3 0
3 0
3 0
1 0
2 0
2 0
2 0
3 0
1 0
1 0
1 0
1 0
2 0
2 0
1 0
1 0
1 0
1 0
3 0
3 0
3 0
1 0
3 0
-2 4 0
2 0
1 0
3 0
2 0
1 0
3 0
2 0
2 0
1 0
2 0
1 0
4 -5 0
1 0
3 0
1 0
1 0
2 0
1 0
1 0
1 0
2 0
1 0
3 0
1 0
3 0
3 0
2 0
3 0
1 0
2 0
3 0
1 0
1 0
3 0
-8 -7 0
1 0
1 0
2 0
1 0
1 0
2 0
3 0
3 0
2 0
3 0
2 0
2 0
2 0
2 0
-7 -6 0
1 0
3 0
1 0
2 0
3 0
2 0
1 0
3 0
2 0
2 0
1 0
1 0
3 0
2 0
3 0
2 0
3 0
1 0
3 0
3 0
2 0
3 0
3 0
1 0
3 0
1 0
3 0
1 0
1 0
2 0
