p cnf 12 118
5 0
1 12 0
1 0
10 0
2 0
4 0
11 0
1 5 0
6 7 0
2 0
5 0
9 0
9 0
10 0
9 -8 0
3 0
3 0
1 0
9 -8 0
3 0
1 0
3 0
11 0
6 7 0
3 0
-6 7 0
3 0
4 0
1 5 0
8 0
2 0
5 0
2 0
3 0
2 0
5 0
1 0
2 0
12 0
1 0
10 0
12 0
2 0
2 0
2 0
10 0
11 0
5 0
2 0
4 0
3 0
11 0
7 0
5 0
1 0
1 0
1 0
8 0
11 0
2 0
12 0
4 0
4 0
9 0
1 0
11 0
4 0
12 0
6 7 0
9 -8 0
3 0
11 0
4 0
5 0
7 0
4 0
1 0
3 0
4 0
2 0
10 0
4 0
4 0
8 0
2 0
4 0
5 0
1 0
12 0
5 0
2 0
-10 7 0
1 0
9 -8 0
3 0
11 0
4 0
4 0
1 0
4 0
9 -8 0
11 0
1 0
3 0
2 0
3 0
4 0
1 0
12 0
2 0
9 0
12 0
11 0
2 0
5 0
2 0
8 0
3 0
