p cnf 12 161
1 0
-4 0
1 3 0
7 12 11 8 6 -9 3 4 5 2 0
-4 0
7 10 6 -9 3 4 5 2 0
-3 0
10 6 -9 3 4 5 2 0
-2 0
1 0
7 10 11 8 6 -9 3 4 5 2 0
1 0
1 -7 0
1 0
7 11 6 -9 3 4 5 2 0
7 8 6 -9 3 4 5 2 0
-2 0
-7 -8 0
12 6 -9 3 4 5 2 0
7 10 11 8 6 -9 3 4 5 2 0
-10 0
10 8 6 -9 3 4 5 2 0
-5 0
10 11 8 6 -9 3 4 5 2 0
-10 -8 0
1 3 0
-2 0
1 -4 0
-5 0
6 -9 3 4 5 2 0
-2 0
7 12 6 -9 3 4 5 2 0
-11 0
10 11 6 -9 3 4 5 2 0
12 10 8 6 -9 3 4 5 2 0
1 0
1 -10 0
9 -3 0
-8 -6 9 0
11 8 6 -9 3 4 5 2 0
-10 0
1 -11 0
8 6 -9 3 4 5 2 0
9 -2 0
7 12 10 6 -9 3 4 5 2 0
7 12 10 8 6 -9 3 4 5 2 0
10 11 6 -9 3 4 5 2 0
11 6 -9 3 4 5 2 0
7 10 11 6 -9 3 4 5 2 0
10 11 8 6 -9 3 4 5 2 0
-11 0
7 10 8 6 -9 3 4 5 2 0
-6 4 5 0
1 0
9 -5 0
6 -4 0
12 10 11 8 6 -9 3 4 5 2 0
7 8 6 -9 3 4 5 2 0
1 -5 0
12 10 11 6 -9 3 4 5 2 0
7 12 10 6 -9 3 4 5 2 0
1 0
12 8 6 -9 3 4 5 2 0
11 6 -9 3 4 5 2 0
-8 0
-7 0
-5 0
-12 0
-12 0
-4 0
12 10 11 8 6 -9 3 4 5 2 0
7 12 6 -9 3 4 5 2 0
1 3 0
12 10 8 6 -9 3 4 5 2 0
-3 0
-11 0
8 6 -9 3 4 5 2 0
-7 -6 9 0
-12 -10 0
1 0
7 10 11 6 -9 3 4 5 2 0
-1 -3 0
-12 0
1 -12 0
7 11 8 6 -9 3 4 5 2 0
7 11 6 -9 3 4 5 2 0
1 0
11 8 6 -9 3 4 5 2 0
7 6 -9 3 4 5 2 0
-10 0
10 8 6 -9 3 4 5 2 0
12 11 6 -9 3 4 5 2 0
7 12 8 6 -9 3 4 5 2 0
1 0
7 12 11 6 -9 3 4 5 2 0
12 11 8 6 -9 3 4 5 2 0
7 12 10 11 8 6 -9 3 4 5 2 0
7 6 -9 3 4 5 2 0
7 12 11 6 -9 3 4 5 2 0
-11 0
1 3 0
7 12 8 6 -9 3 4 5 2 0
-12 -8 0
-12 -6 9 0
7 10 6 -9 3 4 5 2 0
-2 0
7 11 8 6 -9 3 4 5 2 0
-11 -6 9 0
-7 -10 0
9 -4 0
7 12 10 8 6 -9 3 4 5 2 0
7 12 10 11 6 -9 3 4 5 2 0
-12 0
-11 0
12 11 6 -9 3 4 5 2 0
7 10 8 6 -9 3 4 5 2 0
-10 -6 9 0
-5 0
-5 0
7 12 11 8 6 -9 3 4 5 2 0
1 0
1 3 0
-12 0
-8 0
12 8 6 -9 3 4 5 2 0
7 12 10 11 8 -9 3 4 5 2 0
1 -8 0
-4 -5 0
-7 0
1 3 2 0
-10 -11 0
6 -5 0
-2 0
12 11 8 6 -9 3 4 5 2 0
12 10 6 -9 3 4 5 2 0
-7 -11 0
-11 -8 0
-7 -12 0
12 10 6 -9 3 4 5 2 0
6 -9 3 4 5 2 0
-7 0
-10 0
-12 -11 0
-8 0
-3 0
-4 0
7 12 10 11 6 -9 3 4 5 2 0
-10 0
-4 0
-4 -5 0
-2 0
12 10 11 6 -9 3 4 5 2 0
-4 0
-5 0
1 0
12 6 -9 3 4 5 2 0
10 6 -9 3 4 5 2 0
1 0
-3 0
-2 0
1 0
