p cnf 12 96
2 0
2 -5 -10 0
4 -6 0
4 -6 0
4 -6 0
-6 -10 -11 0
5 9 -12 0
5 9 -12 0
2 -5 -10 0
5 0
-6 -10 -11 0
-3 0
4 0
4 -6 0
5 9 -12 0
5 0
4 -6 0
-1 8 10 0
5 9 -12 0
2 -5 -10 0
-6 -10 -11 0
8 -11 0
4 0
8 -11 0
5 0
2 -5 -10 0
5 0
2 0
-3 0
5 0
4 0
4 -6 0
5 9 -12 0
2 -5 -10 0
4 0
2 0
8 -11 0
8 -11 0
-3 0
-1 8 10 0
2 0
-1 8 10 0
-1 8 10 0
5 0
-1 8 10 0
2 -5 -10 0
4 0
8 -11 0
-1 8 10 0
2 -5 -10 0
-1 8 10 0
-3 0
4 0
4 0
-6 -10 -11 0
-3 0
2 -5 -10 0
5 0
8 -11 0
8 -11 0
4 -6 0
4 -6 0
5 0
-3 0
8 -11 0
8 -11 0
2 -5 -10 0
2 0
-6 -10 -11 0
5 9 -12 0
-3 0
4 0
2 0
8 -11 0
8 -11 0
5 0
-6 -10 -11 0
5 9 -12 0
4 -6 0
-6 -10 -11 0
-6 -10 -11 0
4 0
4 0
5 9 -12 0
-1 8 10 0
2 -5 -10 0
8 -11 0
-6 -10 -11 0
4 -6 0
2 0
5 0
-6 -10 -11 0
5 0
4 -6 0
-3 0
-1 8 10 0
