p cnf 8 89
1 -7 0
3 -1 -7 -5 0
1 0
1 -2 -8 0
1 -7 -5 0
-7 -2 0
3 -1 -5 -4 0
3 -1 -7 0
-5 -6 0
-1 -4 0
1 -2 -6 0
-7 -8 0
-8 0
1 -5 -4 0
1 -7 -8 0
3 -1 -7 -4 0
1 -7 -2 0
3 -1 -2 -4 0
3 -1 -7 -6 0
1 -8 0
1 -7 -6 0
1 -5 -2 0
-4 -6 0
1 -4 0
-2 0
3 -1 -5 -8 0
1 0
-7 -4 0
3 0
-4 0
3 -1 -2 -8 0
1 -6 0
-8 -6 0
-8 -4 0
1 -6 0
3 -1 -7 -8 0
3 -1 -4 -6 0
1 -8 0
3 -1 -2 -6 0
1 -5 -8 0
-7 0
1 -2 -4 0
1 -5 0
-5 -8 0
3 -1 -5 0
3 -1 -4 0
3 -1 -8 -4 0
-2 -6 0
-1 -7 0
1 -4 -6 0
1 -5 -6 0
3 -1 -8 -6 0
3 -1 -4 0
-5 -4 0
3 -1 -8 0
-6 0
-1 -8 0
3 -1 -6 0
1 -5 0
-5 0
-1 -5 0
1 -2 0
-2 0
1 0
3 -1 -2 0
-1 -5 0
3 -1 -5 -6 0
1 -7 -4 0
1 -2 0
3 -1 -5 -2 0
-4 0
1 -8 -6 0
-2 -8 0
3 -1 -7 0
-5 -2 0
-7 -6 0
1 -8 -4 0
-7 -5 0
-1 -5 0
3 -1 -7 -2 0
1 -4 0
3 -1 -6 0
-2 -4 0
1 -7 0
1 0
3 -1 -5 0
3 -1 -8 0
3 -1 -2 0
-1 -5 0
