p cnf 8 277
-8 0
-4 0
-2 0
-5 0
6 0
6 0
6 0
6 0
6 0
6 0
6 0
6 0
6 0
6 0
6 0
-3 0
-7 0
-1 0
-1 0
-1 0
-1 3 0
-1 0
-1 0
-1 7 -3 0
-1 7 -3 0
-1 7 -3 0
-1 7 -3 0
-1 7 -3 0
-1 7 -3 0
-1 7 -3 0
-1 7 -3 0
-1 7 -3 0
-1 -3 0
-1 -3 0
-1 -3 0
-1 -3 0
-1 -3 0
-1 -3 0
-1 -3 0
-1 -3 0
-1 -3 0
-1 -3 0
-1 -3 0
-1 -3 0
-1 -3 0
-1 -3 0
-1 -3 0
-1 -3 0
-1 -3 0
-1 -3 0
-1 7 -3 0
-1 7 -3 0
-1 7 -3 0
-1 7 -3 0
-1 7 -3 0
-1 7 -3 0
-1 7 -3 0
-1 7 -3 0
-1 7 -3 0
-1 -3 0
-1 -3 0
-1 -3 0
-1 -3 0
-1 -3 0
-1 -3 0
-1 -3 0
-1 -3 0
-1 -3 0
-1 -3 0
-1 -3 0
-1 -3 0
-1 -3 0
-1 -3 0
-1 -3 0
-1 -3 0
-1 -3 0
-1 -3 0
-1 7 -3 0
-1 7 -3 0
-1 7 -3 0
-1 7 -3 0
-1 7 -3 0
-1 7 -3 0
-1 7 -3 0
-1 7 -3 0
-1 7 -3 0
-1 -3 0
-1 -3 0
-1 -3 0
-1 -3 0
-1 -3 0
-1 -3 0
-1 -3 0
-1 -3 0
-1 -3 0
-1 -3 0
-1 -3 0
-1 -3 0
-1 -3 0
-1 -3 0
-1 -3 0
-1 -3 0
-1 -3 0
-1 -3 0
-1 7 -3 0
-1 7 -3 0
-1 7 -3 0
-1 7 -3 0
-1 7 -3 0
-1 7 -3 0
-1 7 -3 0
-1 7 -3 0
-1 7 -3 0
-1 7 -3 0
-1 7 -3 0
-1 7 -3 0
-1 7 -3 0
-1 7 -3 0
-1 7 -3 0
-1 7 -3 0
-1 7 -3 0
-1 7 -3 0
-1 -3 0
-1 -3 0
-1 -3 0
-1 -3 0
-1 -3 0
-1 -3 0
-1 -3 0
-1 -3 0
-1 -3 0
-1 -3 0
-1 -3 0
-1 -3 0
-1 -3 0
-1 -3 0
-1 -3 0
-1 -3 0
-1 -3 0
-1 -3 0
-1 -3 0
-1 -3 0
-1 -3 0
-1 -3 0
-1 -3 0
-1 -3 0
-1 -3 0
-1 -3 0
-1 -3 0
-1 -3 0
-1 -3 0
-1 -3 0
-1 -3 0
-1 -3 0
-1 -3 0
-1 -3 0
-1 -3 0
-1 -3 0
-1 7 -3 0
-1 7 -3 0
-1 7 -3 0
-1 7 -3 0
-1 7 -3 0
-1 7 -3 0
-1 7 -3 0
-1 7 -3 0
-1 7 -3 0
-1 7 -3 0
-1 7 -3 0
-1 7 -3 0
-1 7 -3 0
-1 7 -3 0
-1 7 -3 0
-1 7 -3 0
-1 7 -3 0
-1 7 -3 0
-1 -3 0
-1 -3 0
-1 -3 0
-1 -3 0
-1 -3 0
-1 -3 0
-1 -3 0
-1 -3 0
-1 -3 0
-1 -3 0
-1 -3 0
-1 -3 0
-1 -3 0
-1 -3 0
-1 -3 0
-1 -3 0
-1 -3 0
-1 -3 0
-1 -3 0
-1 -3 0
-1 -3 0
-1 -3 0
-1 -3 0
-1 -3 0
-1 -3 0
-1 -3 0
-1 -3 0
-1 -3 0
-1 -3 0
-1 -3 0
-1 -3 0
-1 -3 0
-1 -3 0
-1 -3 0
-1 -3 0
-1 -3 0
-1 7 -3 0
-1 7 -3 0
-1 7 -3 0
-1 7 -3 0
-1 7 -3 0
-1 7 -3 0
-1 7 -3 0
-1 7 -3 0
-1 7 -3 0
-1 7 -3 0
-1 7 -3 0
-1 7 -3 0
-1 7 -3 0
-1 7 -3 0
-1 7 -3 0
-1 7 -3 0
-1 7 -3 0
-1 7 -3 0
-1 -3 0
-1 -3 0
-1 -3 0
-1 -3 0
-1 -3 0
-1 -3 0
-1 -3 0
-1 -3 0
-1 -3 0
-1 -3 0
-1 -3 0
-1 -3 0
-1 -3 0
-1 -3 0
-1 -3 0
-1 -3 0
-1 -3 0
-1 -3 0
-1 -3 0
-1 -3 0
-1 -3 0
-1 -3 0
-1 -3 0
-1 -3 0
-1 -3 0
-1 -3 0
-1 -3 0
-1 -3 0
-1 -3 0
-1 -3 0
-1 -3 0
-1 -3 0
-1 -3 0
-1 -3 0
-1 -3 0
-1 -3 0
-1 0
-1 0
-1 0
-1 0
-1 0
-1 0
-1 0
-1 0
-1 0
-1 0
-1 0
