c t pmc
p cnf 1466 5239
c p show 1076 1077 1078 1079 1092 1093 1094 1095 1088 1089 1090 1091 1100 1101 1102 1103 1080 1081 1082 1083 1084 1085 1086 1087 1096 1097 1098 1099 0
1 0
-2 0
-3 4 0
-5 4 0
-3 -5 4 0
3 5 -4 0
-3 6 0
-5 6 0
-3 -5 6 0
3 5 -6 0
-7 8 0
-6 8 0
-7 -6 8 0
7 6 -8 0
-7 9 0
-6 9 0
-7 -6 9 0
7 6 -9 0
10 9 0
-10 0
-11 0
-12 0
-13 14 0
-15 14 0
-13 -15 14 0
13 15 -14 0
-13 16 0
-15 16 0
-13 -15 16 0
13 15 -16 0
-17 18 0
-16 18 0
-17 -16 18 0
17 16 -18 0
-17 19 0
-16 19 0
-17 -16 19 0
17 16 -19 0
20 19 0
-20 0
-21 0
-22 23 0
-24 23 0
-22 -24 23 0
22 24 -23 0
-22 25 0
-24 25 0
-22 -24 25 0
22 24 -25 0
-26 27 0
-25 27 0
-26 -25 27 0
26 25 -27 0
-26 28 0
-25 28 0
-26 -25 28 0
26 25 -28 0
29 28 0
-29 0
-30 -10 -20 0
-30 10 20 0
30 10 -20 0
30 -10 20 0
-31 -7 -17 0
-31 7 17 0
31 7 -17 0
31 -7 17 0
-32 -3 -13 0
-32 3 13 0
32 3 -13 0
32 -3 13 0
-33 -5 -15 0
-33 5 15 0
33 5 -15 0
33 -5 15 0
-33 34 0
-32 34 0
-31 34 0
-30 34 0
33 32 31 30 -34 0
34 0
-35 -10 -29 0
-35 10 29 0
35 10 -29 0
35 -10 29 0
-36 -7 -26 0
-36 7 26 0
36 7 -26 0
36 -7 26 0
-37 -3 -22 0
-37 3 22 0
37 3 -22 0
37 -3 22 0
-38 -5 -24 0
-38 5 24 0
38 5 -24 0
38 -5 24 0
-38 39 0
-37 39 0
-36 39 0
-35 39 0
38 37 36 35 -39 0
39 0
-40 -20 -29 0
-40 20 29 0
40 20 -29 0
40 -20 29 0
-41 -17 -26 0
-41 17 26 0
41 17 -26 0
41 -17 26 0
-42 -13 -22 0
-42 13 22 0
42 13 -22 0
42 -13 22 0
-43 -15 -24 0
-43 15 24 0
43 15 -24 0
43 -15 24 0
-43 44 0
-42 44 0
-41 44 0
-40 44 0
43 42 41 40 -44 0
44 0
10 -2 0
20 -11 0
20 -12 0
29 -21 0
-45 46 0
-47 46 0
-48 46 0
-2 46 0
45 47 48 2 -46 0
46 0
-49 50 0
-51 50 0
-52 50 0
-11 50 0
49 51 52 11 -50 0
50 0
-53 54 0
-55 54 0
-56 54 0
-12 54 0
53 55 56 12 -54 0
54 0
-57 -58 -59 0
-57 58 59 0
57 58 -59 0
57 -58 59 0
-60 -61 -62 0
-60 61 62 0
60 61 -62 0
60 -61 62 0
-63 -64 -65 0
-63 64 65 0
63 64 -65 0
63 -64 65 0
-66 -67 -68 0
-66 67 68 0
66 67 -68 0
66 -67 68 0
-69 -70 -71 0
-69 70 71 0
69 70 -71 0
69 -70 71 0
-72 -73 -74 0
-72 73 74 0
72 73 -74 0
72 -73 74 0
-75 -76 -77 0
-75 76 77 0
75 76 -77 0
75 -76 77 0
-78 -79 -80 0
-78 79 80 0
78 79 -80 0
78 -79 80 0
-81 -82 -83 0
-81 82 83 0
81 82 -83 0
81 -82 83 0
-84 -85 -86 0
-84 85 86 0
84 85 -86 0
84 -85 86 0
-87 -88 -89 0
-87 88 89 0
87 88 -89 0
87 -88 89 0
-90 -91 -92 0
-90 91 92 0
90 91 -92 0
90 -91 92 0
-93 -94 -95 0
-93 94 95 0
93 94 -95 0
93 -94 95 0
-96 -97 -98 0
-96 97 98 0
96 97 -98 0
96 -97 98 0
-99 -100 -101 0
-99 100 101 0
99 100 -101 0
99 -100 101 0
-102 -103 -104 0
-102 103 104 0
102 103 -104 0
102 -103 104 0
-105 -106 -107 0
-105 106 107 0
105 106 -107 0
105 -106 107 0
-108 -109 -110 0
-108 109 110 0
108 109 -110 0
108 -109 110 0
-111 -112 -113 0
-111 112 113 0
111 112 -113 0
111 -112 113 0
-114 -115 -116 0
-114 115 116 0
114 115 -116 0
114 -115 116 0
-117 -118 -119 0
-117 118 119 0
117 118 -119 0
117 -118 119 0
-120 -121 -122 0
-120 121 122 0
120 121 -122 0
120 -121 122 0
-123 -124 -125 0
-123 124 125 0
123 124 -125 0
123 -124 125 0
-126 -127 -128 0
-126 127 128 0
126 127 -128 0
126 -127 128 0
-129 -130 -131 0
-129 130 131 0
129 130 -131 0
129 -130 131 0
-132 -133 -134 0
-132 133 134 0
132 133 -134 0
132 -133 134 0
-135 -136 -137 0
-135 136 137 0
135 136 -137 0
135 -136 137 0
-138 -139 -140 0
-138 139 140 0
138 139 -140 0
138 -139 140 0
-141 -142 -143 0
-141 142 143 0
141 142 -143 0
141 -142 143 0
-144 -145 -146 0
-144 145 146 0
144 145 -146 0
144 -145 146 0
-147 -148 -149 0
-147 148 149 0
147 148 -149 0
147 -148 149 0
-150 -151 -152 0
-150 151 152 0
150 151 -152 0
150 -151 152 0
-150 153 0
-147 153 0
-144 153 0
-141 153 0
-138 153 0
-135 153 0
-132 153 0
-129 153 0
-126 153 0
-123 153 0
-120 153 0
-117 153 0
-114 153 0
-111 153 0
-108 153 0
-105 153 0
-102 153 0
-99 153 0
-96 153 0
-93 153 0
-90 153 0
-87 153 0
-84 153 0
-81 153 0
-78 153 0
-75 153 0
-72 153 0
-69 153 0
-66 153 0
-63 153 0
-60 153 0
-57 153 0
150 147 144 141 138 135 132 129 126 123 120 117 114 111 108 105 102 99 96 93 90 87 84 81 78 75 72 69 66 63 60 57 -153 0
-154 155 0
-156 155 0
-157 155 0
-21 155 0
154 156 157 21 -155 0
155 -153 0
-158 -159 -160 0
-158 159 160 0
158 159 -160 0
158 -159 160 0
-161 -162 -163 0
-161 162 163 0
161 162 -163 0
161 -162 163 0
-164 -165 -166 0
-164 165 166 0
164 165 -166 0
164 -165 166 0
-167 -168 -169 0
-167 168 169 0
167 168 -169 0
167 -168 169 0
-170 -171 -172 0
-170 171 172 0
170 171 -172 0
170 -171 172 0
-173 -174 -175 0
-173 174 175 0
173 174 -175 0
173 -174 175 0
-176 -177 -178 0
-176 177 178 0
176 177 -178 0
176 -177 178 0
-179 -180 -181 0
-179 180 181 0
179 180 -181 0
179 -180 181 0
-182 -183 -184 0
-182 183 184 0
182 183 -184 0
182 -183 184 0
-185 -186 -187 0
-185 186 187 0
185 186 -187 0
185 -186 187 0
-188 -189 -190 0
-188 189 190 0
188 189 -190 0
188 -189 190 0
-191 -192 -193 0
-191 192 193 0
191 192 -193 0
191 -192 193 0
-194 -195 -196 0
-194 195 196 0
194 195 -196 0
194 -195 196 0
-197 -198 -199 0
-197 198 199 0
197 198 -199 0
197 -198 199 0
-200 -201 -202 0
-200 201 202 0
200 201 -202 0
200 -201 202 0
-203 -204 -205 0
-203 204 205 0
203 204 -205 0
203 -204 205 0
-206 -207 -208 0
-206 207 208 0
206 207 -208 0
206 -207 208 0
-209 -210 -211 0
-209 210 211 0
209 210 -211 0
209 -210 211 0
-212 -213 -214 0
-212 213 214 0
212 213 -214 0
212 -213 214 0
-215 -216 -217 0
-215 216 217 0
215 216 -217 0
215 -216 217 0
-218 -219 -220 0
-218 219 220 0
218 219 -220 0
218 -219 220 0
-221 -222 -223 0
-221 222 223 0
221 222 -223 0
221 -222 223 0
-224 -225 -226 0
-224 225 226 0
224 225 -226 0
224 -225 226 0
-227 -228 -229 0
-227 228 229 0
227 228 -229 0
227 -228 229 0
-230 -231 -232 0
-230 231 232 0
230 231 -232 0
230 -231 232 0
-233 -234 -235 0
-233 234 235 0
233 234 -235 0
233 -234 235 0
-236 -237 -238 0
-236 237 238 0
236 237 -238 0
236 -237 238 0
-239 -240 -241 0
-239 240 241 0
239 240 -241 0
239 -240 241 0
-242 -243 -244 0
-242 243 244 0
242 243 -244 0
242 -243 244 0
-245 -246 -247 0
-245 246 247 0
245 246 -247 0
245 -246 247 0
-248 -249 -250 0
-248 249 250 0
248 249 -250 0
248 -249 250 0
-251 -252 -253 0
-251 252 253 0
251 252 -253 0
251 -252 253 0
-251 254 0
-248 254 0
-245 254 0
-242 254 0
-239 254 0
-236 254 0
-233 254 0
-230 254 0
-227 254 0
-224 254 0
-221 254 0
-218 254 0
-215 254 0
-212 254 0
-209 254 0
-206 254 0
-203 254 0
-200 254 0
-197 254 0
-194 254 0
-191 254 0
-188 254 0
-185 254 0
-182 254 0
-179 254 0
-176 254 0
-173 254 0
-170 254 0
-167 254 0
-164 254 0
-161 254 0
-158 254 0
251 248 245 242 239 236 233 230 227 224 221 218 215 212 209 206 203 200 197 194 191 188 185 182 179 176 173 170 167 164 161 158 -254 0
-255 -2 -11 0
-255 2 11 0
255 2 -11 0
255 -2 11 0
-256 -48 -52 0
-256 48 52 0
256 48 -52 0
256 -48 52 0
-257 -47 -51 0
-257 47 51 0
257 47 -51 0
257 -47 51 0
-258 -45 -49 0
-258 45 49 0
258 45 -49 0
258 -45 49 0
-258 259 0
-257 259 0
-256 259 0
-255 259 0
258 257 256 255 -259 0
259 -254 0
-260 -159 -261 0
-260 159 261 0
260 159 -261 0
260 -159 261 0
-262 -162 -263 0
-262 162 263 0
262 162 -263 0
262 -162 263 0
-264 -165 -265 0
-264 165 265 0
264 165 -265 0
264 -165 265 0
-266 -168 -267 0
-266 168 267 0
266 168 -267 0
266 -168 267 0
-268 -171 -269 0
-268 171 269 0
268 171 -269 0
268 -171 269 0
-270 -174 -271 0
-270 174 271 0
270 174 -271 0
270 -174 271 0
-272 -177 -273 0
-272 177 273 0
272 177 -273 0
272 -177 273 0
-274 -180 -275 0
-274 180 275 0
274 180 -275 0
274 -180 275 0
-276 -183 -277 0
-276 183 277 0
276 183 -277 0
276 -183 277 0
-278 -186 -279 0
-278 186 279 0
278 186 -279 0
278 -186 279 0
-280 -189 -281 0
-280 189 281 0
280 189 -281 0
280 -189 281 0
-282 -192 -283 0
-282 192 283 0
282 192 -283 0
282 -192 283 0
-284 -195 -285 0
-284 195 285 0
284 195 -285 0
284 -195 285 0
-286 -198 -287 0
-286 198 287 0
286 198 -287 0
286 -198 287 0
-288 -201 -289 0
-288 201 289 0
288 201 -289 0
288 -201 289 0
-290 -204 -291 0
-290 204 291 0
290 204 -291 0
290 -204 291 0
-292 -207 -293 0
-292 207 293 0
292 207 -293 0
292 -207 293 0
-294 -210 -295 0
-294 210 295 0
294 210 -295 0
294 -210 295 0
-296 -213 -297 0
-296 213 297 0
296 213 -297 0
296 -213 297 0
-298 -216 -299 0
-298 216 299 0
298 216 -299 0
298 -216 299 0
-300 -219 -301 0
-300 219 301 0
300 219 -301 0
300 -219 301 0
-302 -222 -303 0
-302 222 303 0
302 222 -303 0
302 -222 303 0
-304 -225 -305 0
-304 225 305 0
304 225 -305 0
304 -225 305 0
-306 -228 -307 0
-306 228 307 0
306 228 -307 0
306 -228 307 0
-308 -231 -309 0
-308 231 309 0
308 231 -309 0
308 -231 309 0
-310 -234 -311 0
-310 234 311 0
310 234 -311 0
310 -234 311 0
-312 -237 -313 0
-312 237 313 0
312 237 -313 0
312 -237 313 0
-314 -240 -315 0
-314 240 315 0
314 240 -315 0
314 -240 315 0
-316 -243 -317 0
-316 243 317 0
316 243 -317 0
316 -243 317 0
-318 -246 -319 0
-318 246 319 0
318 246 -319 0
318 -246 319 0
-320 -249 -321 0
-320 249 321 0
320 249 -321 0
320 -249 321 0
-322 -252 -323 0
-322 252 323 0
322 252 -323 0
322 -252 323 0
-322 324 0
-320 324 0
-318 324 0
-316 324 0
-314 324 0
-312 324 0
-310 324 0
-308 324 0
-306 324 0
-304 324 0
-302 324 0
-300 324 0
-298 324 0
-296 324 0
-294 324 0
-292 324 0
-290 324 0
-288 324 0
-286 324 0
-284 324 0
-282 324 0
-280 324 0
-278 324 0
-276 324 0
-274 324 0
-272 324 0
-270 324 0
-268 324 0
-266 324 0
-264 324 0
-262 324 0
-260 324 0
322 320 318 316 314 312 310 308 306 304 302 300 298 296 294 292 290 288 286 284 282 280 278 276 274 272 270 268 266 264 262 260 -324 0
-325 -2 -12 0
-325 2 12 0
325 2 -12 0
325 -2 12 0
-326 -48 -56 0
-326 48 56 0
326 48 -56 0
326 -48 56 0
-327 -47 -55 0
-327 47 55 0
327 47 -55 0
327 -47 55 0
-328 -45 -53 0
-328 45 53 0
328 45 -53 0
328 -45 53 0
-328 329 0
-327 329 0
-326 329 0
-325 329 0
328 327 326 325 -329 0
329 -324 0
-330 -2 -21 0
-330 2 21 0
330 2 -21 0
330 -2 21 0
-331 -48 -157 0
-331 48 157 0
331 48 -157 0
331 -48 157 0
-332 -47 -156 0
-332 47 156 0
332 47 -156 0
332 -47 156 0
-333 -45 -154 0
-333 45 154 0
333 45 -154 0
333 -45 154 0
-333 334 0
-332 334 0
-331 334 0
-330 334 0
333 332 331 330 -334 0
334 0
-335 -159 -336 0
-335 159 336 0
335 159 -336 0
335 -159 336 0
-337 -162 -338 0
-337 162 338 0
337 162 -338 0
337 -162 338 0
-339 -165 -340 0
-339 165 340 0
339 165 -340 0
339 -165 340 0
-341 -168 -342 0
-341 168 342 0
341 168 -342 0
341 -168 342 0
-343 -171 -344 0
-343 171 344 0
343 171 -344 0
343 -171 344 0
-345 -174 -346 0
-345 174 346 0
345 174 -346 0
345 -174 346 0
-347 -177 -348 0
-347 177 348 0
347 177 -348 0
347 -177 348 0
-349 -180 -350 0
-349 180 350 0
349 180 -350 0
349 -180 350 0
-351 -183 -352 0
-351 183 352 0
351 183 -352 0
351 -183 352 0
-353 -186 -354 0
-353 186 354 0
353 186 -354 0
353 -186 354 0
-355 -189 -356 0
-355 189 356 0
355 189 -356 0
355 -189 356 0
-357 -192 -358 0
-357 192 358 0
357 192 -358 0
357 -192 358 0
-359 -195 -360 0
-359 195 360 0
359 195 -360 0
359 -195 360 0
-361 -198 -362 0
-361 198 362 0
361 198 -362 0
361 -198 362 0
-363 -201 -364 0
-363 201 364 0
363 201 -364 0
363 -201 364 0
-365 -204 -366 0
-365 204 366 0
365 204 -366 0
365 -204 366 0
-367 -207 -368 0
-367 207 368 0
367 207 -368 0
367 -207 368 0
-369 -210 -370 0
-369 210 370 0
369 210 -370 0
369 -210 370 0
-371 -213 -372 0
-371 213 372 0
371 213 -372 0
371 -213 372 0
-373 -216 -374 0
-373 216 374 0
373 216 -374 0
373 -216 374 0
-375 -219 -376 0
-375 219 376 0
375 219 -376 0
375 -219 376 0
-377 -222 -378 0
-377 222 378 0
377 222 -378 0
377 -222 378 0
-379 -225 -380 0
-379 225 380 0
379 225 -380 0
379 -225 380 0
-381 -228 -382 0
-381 228 382 0
381 228 -382 0
381 -228 382 0
-383 -231 -384 0
-383 231 384 0
383 231 -384 0
383 -231 384 0
-385 -234 -386 0
-385 234 386 0
385 234 -386 0
385 -234 386 0
-387 -237 -388 0
-387 237 388 0
387 237 -388 0
387 -237 388 0
-389 -240 -390 0
-389 240 390 0
389 240 -390 0
389 -240 390 0
-391 -243 -392 0
-391 243 392 0
391 243 -392 0
391 -243 392 0
-393 -246 -394 0
-393 246 394 0
393 246 -394 0
393 -246 394 0
-395 -249 -396 0
-395 249 396 0
395 249 -396 0
395 -249 396 0
-397 -252 -398 0
-397 252 398 0
397 252 -398 0
397 -252 398 0
-397 399 0
-395 399 0
-393 399 0
-391 399 0
-389 399 0
-387 399 0
-385 399 0
-383 399 0
-381 399 0
-379 399 0
-377 399 0
-375 399 0
-373 399 0
-371 399 0
-369 399 0
-367 399 0
-365 399 0
-363 399 0
-361 399 0
-359 399 0
-357 399 0
-355 399 0
-353 399 0
-351 399 0
-349 399 0
-347 399 0
-345 399 0
-343 399 0
-341 399 0
-339 399 0
-337 399 0
-335 399 0
397 395 393 391 389 387 385 383 381 379 377 375 373 371 369 367 365 363 361 359 357 355 353 351 349 347 345 343 341 339 337 335 -399 0
-400 -2 -10 0
-400 2 10 0
400 2 -10 0
400 -2 10 0
-401 -48 -7 0
-401 48 7 0
401 48 -7 0
401 -48 7 0
-402 -47 -3 0
-402 47 3 0
402 47 -3 0
402 -47 3 0
-403 -45 -5 0
-403 45 5 0
403 45 -5 0
403 -45 5 0
-403 404 0
-402 404 0
-401 404 0
-400 404 0
403 402 401 400 -404 0
404 -399 0
-405 -159 -406 0
-405 159 406 0
405 159 -406 0
405 -159 406 0
-407 -162 -408 0
-407 162 408 0
407 162 -408 0
407 -162 408 0
-409 -165 -410 0
-409 165 410 0
409 165 -410 0
409 -165 410 0
-411 -168 -412 0
-411 168 412 0
411 168 -412 0
411 -168 412 0
-413 -171 -414 0
-413 171 414 0
413 171 -414 0
413 -171 414 0
-415 -174 -416 0
-415 174 416 0
415 174 -416 0
415 -174 416 0
-417 -177 -418 0
-417 177 418 0
417 177 -418 0
417 -177 418 0
-419 -180 -420 0
-419 180 420 0
419 180 -420 0
419 -180 420 0
-421 -183 -422 0
-421 183 422 0
421 183 -422 0
421 -183 422 0
-423 -186 -424 0
-423 186 424 0
423 186 -424 0
423 -186 424 0
-425 -189 -426 0
-425 189 426 0
425 189 -426 0
425 -189 426 0
-427 -192 -428 0
-427 192 428 0
427 192 -428 0
427 -192 428 0
-429 -195 -430 0
-429 195 430 0
429 195 -430 0
429 -195 430 0
-431 -198 -432 0
-431 198 432 0
431 198 -432 0
431 -198 432 0
-433 -201 -434 0
-433 201 434 0
433 201 -434 0
433 -201 434 0
-435 -204 -436 0
-435 204 436 0
435 204 -436 0
435 -204 436 0
-437 -207 -438 0
-437 207 438 0
437 207 -438 0
437 -207 438 0
-439 -210 -440 0
-439 210 440 0
439 210 -440 0
439 -210 440 0
-441 -213 -442 0
-441 213 442 0
441 213 -442 0
441 -213 442 0
-443 -216 -444 0
-443 216 444 0
443 216 -444 0
443 -216 444 0
-445 -219 -446 0
-445 219 446 0
445 219 -446 0
445 -219 446 0
-447 -222 -448 0
-447 222 448 0
447 222 -448 0
447 -222 448 0
-449 -225 -450 0
-449 225 450 0
449 225 -450 0
449 -225 450 0
-451 -228 -452 0
-451 228 452 0
451 228 -452 0
451 -228 452 0
-453 -231 -454 0
-453 231 454 0
453 231 -454 0
453 -231 454 0
-455 -234 -456 0
-455 234 456 0
455 234 -456 0
455 -234 456 0
-457 -237 -458 0
-457 237 458 0
457 237 -458 0
457 -237 458 0
-459 -240 -460 0
-459 240 460 0
459 240 -460 0
459 -240 460 0
-461 -243 -462 0
-461 243 462 0
461 243 -462 0
461 -243 462 0
-463 -246 -464 0
-463 246 464 0
463 246 -464 0
463 -246 464 0
-465 -249 -466 0
-465 249 466 0
465 249 -466 0
465 -249 466 0
-467 -252 -468 0
-467 252 468 0
467 252 -468 0
467 -252 468 0
-467 469 0
-465 469 0
-463 469 0
-461 469 0
-459 469 0
-457 469 0
-455 469 0
-453 469 0
-451 469 0
-449 469 0
-447 469 0
-445 469 0
-443 469 0
-441 469 0
-439 469 0
-437 469 0
-435 469 0
-433 469 0
-431 469 0
-429 469 0
-427 469 0
-425 469 0
-423 469 0
-421 469 0
-419 469 0
-417 469 0
-415 469 0
-413 469 0
-411 469 0
-409 469 0
-407 469 0
-405 469 0
467 465 463 461 459 457 455 453 451 449 447 445 443 441 439 437 435 433 431 429 427 425 423 421 419 417 415 413 411 409 407 405 -469 0
-470 -2 -20 0
-470 2 20 0
470 2 -20 0
470 -2 20 0
-471 -48 -17 0
-471 48 17 0
471 48 -17 0
471 -48 17 0
-472 -47 -13 0
-472 47 13 0
472 47 -13 0
472 -47 13 0
-473 -45 -15 0
-473 45 15 0
473 45 -15 0
473 -45 15 0
-473 474 0
-472 474 0
-471 474 0
-470 474 0
473 472 471 470 -474 0
474 -469 0
-475 -159 -476 0
-475 159 476 0
475 159 -476 0
475 -159 476 0
-477 -162 -478 0
-477 162 478 0
477 162 -478 0
477 -162 478 0
-479 -165 -480 0
-479 165 480 0
479 165 -480 0
479 -165 480 0
-481 -168 -482 0
-481 168 482 0
481 168 -482 0
481 -168 482 0
-483 -171 -484 0
-483 171 484 0
483 171 -484 0
483 -171 484 0
-485 -174 -486 0
-485 174 486 0
485 174 -486 0
485 -174 486 0
-487 -177 -488 0
-487 177 488 0
487 177 -488 0
487 -177 488 0
-489 -180 -490 0
-489 180 490 0
489 180 -490 0
489 -180 490 0
-491 -183 -492 0
-491 183 492 0
491 183 -492 0
491 -183 492 0
-493 -186 -494 0
-493 186 494 0
493 186 -494 0
493 -186 494 0
-495 -189 -496 0
-495 189 496 0
495 189 -496 0
495 -189 496 0
-497 -192 -498 0
-497 192 498 0
497 192 -498 0
497 -192 498 0
-499 -195 -500 0
-499 195 500 0
499 195 -500 0
499 -195 500 0
-501 -198 -502 0
-501 198 502 0
501 198 -502 0
501 -198 502 0
-503 -201 -504 0
-503 201 504 0
503 201 -504 0
503 -201 504 0
-505 -204 -506 0
-505 204 506 0
505 204 -506 0
505 -204 506 0
-507 -207 -508 0
-507 207 508 0
507 207 -508 0
507 -207 508 0
-509 -210 -510 0
-509 210 510 0
509 210 -510 0
509 -210 510 0
-511 -213 -512 0
-511 213 512 0
511 213 -512 0
511 -213 512 0
-513 -216 -514 0
-513 216 514 0
513 216 -514 0
513 -216 514 0
-515 -219 -516 0
-515 219 516 0
515 219 -516 0
515 -219 516 0
-517 -222 -518 0
-517 222 518 0
517 222 -518 0
517 -222 518 0
-519 -225 -520 0
-519 225 520 0
519 225 -520 0
519 -225 520 0
-521 -228 -522 0
-521 228 522 0
521 228 -522 0
521 -228 522 0
-523 -231 -524 0
-523 231 524 0
523 231 -524 0
523 -231 524 0
-525 -234 -526 0
-525 234 526 0
525 234 -526 0
525 -234 526 0
-527 -237 -528 0
-527 237 528 0
527 237 -528 0
527 -237 528 0
-529 -240 -530 0
-529 240 530 0
529 240 -530 0
529 -240 530 0
-531 -243 -532 0
-531 243 532 0
531 243 -532 0
531 -243 532 0
-533 -246 -534 0
-533 246 534 0
533 246 -534 0
533 -246 534 0
-535 -249 -536 0
-535 249 536 0
535 249 -536 0
535 -249 536 0
-537 -252 -538 0
-537 252 538 0
537 252 -538 0
537 -252 538 0
-537 539 0
-535 539 0
-533 539 0
-531 539 0
-529 539 0
-527 539 0
-525 539 0
-523 539 0
-521 539 0
-519 539 0
-517 539 0
-515 539 0
-513 539 0
-511 539 0
-509 539 0
-507 539 0
-505 539 0
-503 539 0
-501 539 0
-499 539 0
-497 539 0
-495 539 0
-493 539 0
-491 539 0
-489 539 0
-487 539 0
-485 539 0
-483 539 0
-481 539 0
-479 539 0
-477 539 0
-475 539 0
537 535 533 531 529 527 525 523 521 519 517 515 513 511 509 507 505 503 501 499 497 495 493 491 489 487 485 483 481 479 477 475 -539 0
-540 -2 -29 0
-540 2 29 0
540 2 -29 0
540 -2 29 0
-541 -48 -26 0
-541 48 26 0
541 48 -26 0
541 -48 26 0
-542 -47 -22 0
-542 47 22 0
542 47 -22 0
542 -47 22 0
-543 -45 -24 0
-543 45 24 0
543 45 -24 0
543 -45 24 0
-543 544 0
-542 544 0
-541 544 0
-540 544 0
543 542 541 540 -544 0
544 -539 0
-545 -160 -261 0
-545 160 261 0
545 160 -261 0
545 -160 261 0
-546 -163 -263 0
-546 163 263 0
546 163 -263 0
546 -163 263 0
-547 -166 -265 0
-547 166 265 0
547 166 -265 0
547 -166 265 0
-548 -169 -267 0
-548 169 267 0
548 169 -267 0
548 -169 267 0
-549 -172 -269 0
-549 172 269 0
549 172 -269 0
549 -172 269 0
-550 -175 -271 0
-550 175 271 0
550 175 -271 0
550 -175 271 0
-551 -178 -273 0
-551 178 273 0
551 178 -273 0
551 -178 273 0
-552 -181 -275 0
-552 181 275 0
552 181 -275 0
552 -181 275 0
-553 -184 -277 0
-553 184 277 0
553 184 -277 0
553 -184 277 0
-554 -187 -279 0
-554 187 279 0
554 187 -279 0
554 -187 279 0
-555 -190 -281 0
-555 190 281 0
555 190 -281 0
555 -190 281 0
-556 -193 -283 0
-556 193 283 0
556 193 -283 0
556 -193 283 0
-557 -196 -285 0
-557 196 285 0
557 196 -285 0
557 -196 285 0
-558 -199 -287 0
-558 199 287 0
558 199 -287 0
558 -199 287 0
-559 -202 -289 0
-559 202 289 0
559 202 -289 0
559 -202 289 0
-560 -205 -291 0
-560 205 291 0
560 205 -291 0
560 -205 291 0
-561 -208 -293 0
-561 208 293 0
561 208 -293 0
561 -208 293 0
-562 -211 -295 0
-562 211 295 0
562 211 -295 0
562 -211 295 0
-563 -214 -297 0
-563 214 297 0
563 214 -297 0
563 -214 297 0
-564 -217 -299 0
-564 217 299 0
564 217 -299 0
564 -217 299 0
-565 -220 -301 0
-565 220 301 0
565 220 -301 0
565 -220 301 0
-566 -223 -303 0
-566 223 303 0
566 223 -303 0
566 -223 303 0
-567 -226 -305 0
-567 226 305 0
567 226 -305 0
567 -226 305 0
-568 -229 -307 0
-568 229 307 0
568 229 -307 0
568 -229 307 0
-569 -232 -309 0
-569 232 309 0
569 232 -309 0
569 -232 309 0
-570 -235 -311 0
-570 235 311 0
570 235 -311 0
570 -235 311 0
-571 -238 -313 0
-571 238 313 0
571 238 -313 0
571 -238 313 0
-572 -241 -315 0
-572 241 315 0
572 241 -315 0
572 -241 315 0
-573 -244 -317 0
-573 244 317 0
573 244 -317 0
573 -244 317 0
-574 -247 -319 0
-574 247 319 0
574 247 -319 0
574 -247 319 0
-575 -250 -321 0
-575 250 321 0
575 250 -321 0
575 -250 321 0
-576 -253 -323 0
-576 253 323 0
576 253 -323 0
576 -253 323 0
-576 577 0
-575 577 0
-574 577 0
-573 577 0
-572 577 0
-571 577 0
-570 577 0
-569 577 0
-568 577 0
-567 577 0
-566 577 0
-565 577 0
-564 577 0
-563 577 0
-562 577 0
-561 577 0
-560 577 0
-559 577 0
-558 577 0
-557 577 0
-556 577 0
-555 577 0
-554 577 0
-553 577 0
-552 577 0
-551 577 0
-550 577 0
-549 577 0
-548 577 0
-547 577 0
-546 577 0
-545 577 0
576 575 574 573 572 571 570 569 568 567 566 565 564 563 562 561 560 559 558 557 556 555 554 553 552 551 550 549 548 547 546 545 -577 0
-578 -11 -12 0
-578 11 12 0
578 11 -12 0
578 -11 12 0
-579 -52 -56 0
-579 52 56 0
579 52 -56 0
579 -52 56 0
-580 -51 -55 0
-580 51 55 0
580 51 -55 0
580 -51 55 0
-581 -49 -53 0
-581 49 53 0
581 49 -53 0
581 -49 53 0
-581 582 0
-580 582 0
-579 582 0
-578 582 0
581 580 579 578 -582 0
582 -577 0
-583 -11 -21 0
-583 11 21 0
583 11 -21 0
583 -11 21 0
-584 -52 -157 0
-584 52 157 0
584 52 -157 0
584 -52 157 0
-585 -51 -156 0
-585 51 156 0
585 51 -156 0
585 -51 156 0
-586 -49 -154 0
-586 49 154 0
586 49 -154 0
586 -49 154 0
-586 587 0
-585 587 0
-584 587 0
-583 587 0
586 585 584 583 -587 0
587 0
-588 -160 -336 0
-588 160 336 0
588 160 -336 0
588 -160 336 0
-589 -163 -338 0
-589 163 338 0
589 163 -338 0
589 -163 338 0
-590 -166 -340 0
-590 166 340 0
590 166 -340 0
590 -166 340 0
-591 -169 -342 0
-591 169 342 0
591 169 -342 0
591 -169 342 0
-592 -172 -344 0
-592 172 344 0
592 172 -344 0
592 -172 344 0
-593 -175 -346 0
-593 175 346 0
593 175 -346 0
593 -175 346 0
-594 -178 -348 0
-594 178 348 0
594 178 -348 0
594 -178 348 0
-595 -181 -350 0
-595 181 350 0
595 181 -350 0
595 -181 350 0
-596 -184 -352 0
-596 184 352 0
596 184 -352 0
596 -184 352 0
-597 -187 -354 0
-597 187 354 0
597 187 -354 0
597 -187 354 0
-598 -190 -356 0
-598 190 356 0
598 190 -356 0
598 -190 356 0
-599 -193 -358 0
-599 193 358 0
599 193 -358 0
599 -193 358 0
-600 -196 -360 0
-600 196 360 0
600 196 -360 0
600 -196 360 0
-601 -199 -362 0
-601 199 362 0
601 199 -362 0
601 -199 362 0
-602 -202 -364 0
-602 202 364 0
602 202 -364 0
602 -202 364 0
-603 -205 -366 0
-603 205 366 0
603 205 -366 0
603 -205 366 0
-604 -208 -368 0
-604 208 368 0
604 208 -368 0
604 -208 368 0
-605 -211 -370 0
-605 211 370 0
605 211 -370 0
605 -211 370 0
-606 -214 -372 0
-606 214 372 0
606 214 -372 0
606 -214 372 0
-607 -217 -374 0
-607 217 374 0
607 217 -374 0
607 -217 374 0
-608 -220 -376 0
-608 220 376 0
608 220 -376 0
608 -220 376 0
-609 -223 -378 0
-609 223 378 0
609 223 -378 0
609 -223 378 0
-610 -226 -380 0
-610 226 380 0
610 226 -380 0
610 -226 380 0
-611 -229 -382 0
-611 229 382 0
611 229 -382 0
611 -229 382 0
-612 -232 -384 0
-612 232 384 0
612 232 -384 0
612 -232 384 0
-613 -235 -386 0
-613 235 386 0
613 235 -386 0
613 -235 386 0
-614 -238 -388 0
-614 238 388 0
614 238 -388 0
614 -238 388 0
-615 -241 -390 0
-615 241 390 0
615 241 -390 0
615 -241 390 0
-616 -244 -392 0
-616 244 392 0
616 244 -392 0
616 -244 392 0
-617 -247 -394 0
-617 247 394 0
617 247 -394 0
617 -247 394 0
-618 -250 -396 0
-618 250 396 0
618 250 -396 0
618 -250 396 0
-619 -253 -398 0
-619 253 398 0
619 253 -398 0
619 -253 398 0
-619 620 0
-618 620 0
-617 620 0
-616 620 0
-615 620 0
-614 620 0
-613 620 0
-612 620 0
-611 620 0
-610 620 0
-609 620 0
-608 620 0
-607 620 0
-606 620 0
-605 620 0
-604 620 0
-603 620 0
-602 620 0
-601 620 0
-600 620 0
-599 620 0
-598 620 0
-597 620 0
-596 620 0
-595 620 0
-594 620 0
-593 620 0
-592 620 0
-591 620 0
-590 620 0
-589 620 0
-588 620 0
619 618 617 616 615 614 613 612 611 610 609 608 607 606 605 604 603 602 601 600 599 598 597 596 595 594 593 592 591 590 589 588 -620 0
-621 -11 -10 0
-621 11 10 0
621 11 -10 0
621 -11 10 0
-622 -52 -7 0
-622 52 7 0
622 52 -7 0
622 -52 7 0
-623 -51 -3 0
-623 51 3 0
623 51 -3 0
623 -51 3 0
-624 -49 -5 0
-624 49 5 0
624 49 -5 0
624 -49 5 0
-624 625 0
-623 625 0
-622 625 0
-621 625 0
624 623 622 621 -625 0
625 -620 0
-626 -160 -406 0
-626 160 406 0
626 160 -406 0
626 -160 406 0
-627 -163 -408 0
-627 163 408 0
627 163 -408 0
627 -163 408 0
-628 -166 -410 0
-628 166 410 0
628 166 -410 0
628 -166 410 0
-629 -169 -412 0
-629 169 412 0
629 169 -412 0
629 -169 412 0
-630 -172 -414 0
-630 172 414 0
630 172 -414 0
630 -172 414 0
-631 -175 -416 0
-631 175 416 0
631 175 -416 0
631 -175 416 0
-632 -178 -418 0
-632 178 418 0
632 178 -418 0
632 -178 418 0
-633 -181 -420 0
-633 181 420 0
633 181 -420 0
633 -181 420 0
-634 -184 -422 0
-634 184 422 0
634 184 -422 0
634 -184 422 0
-635 -187 -424 0
-635 187 424 0
635 187 -424 0
635 -187 424 0
-636 -190 -426 0
-636 190 426 0
636 190 -426 0
636 -190 426 0
-637 -193 -428 0
-637 193 428 0
637 193 -428 0
637 -193 428 0
-638 -196 -430 0
-638 196 430 0
638 196 -430 0
638 -196 430 0
-639 -199 -432 0
-639 199 432 0
639 199 -432 0
639 -199 432 0
-640 -202 -434 0
-640 202 434 0
640 202 -434 0
640 -202 434 0
-641 -205 -436 0
-641 205 436 0
641 205 -436 0
641 -205 436 0
-642 -208 -438 0
-642 208 438 0
642 208 -438 0
642 -208 438 0
-643 -211 -440 0
-643 211 440 0
643 211 -440 0
643 -211 440 0
-644 -214 -442 0
-644 214 442 0
644 214 -442 0
644 -214 442 0
-645 -217 -444 0
-645 217 444 0
645 217 -444 0
645 -217 444 0
-646 -220 -446 0
-646 220 446 0
646 220 -446 0
646 -220 446 0
-647 -223 -448 0
-647 223 448 0
647 223 -448 0
647 -223 448 0
-648 -226 -450 0
-648 226 450 0
648 226 -450 0
648 -226 450 0
-649 -229 -452 0
-649 229 452 0
649 229 -452 0
649 -229 452 0
-650 -232 -454 0
-650 232 454 0
650 232 -454 0
650 -232 454 0
-651 -235 -456 0
-651 235 456 0
651 235 -456 0
651 -235 456 0
-652 -238 -458 0
-652 238 458 0
652 238 -458 0
652 -238 458 0
-653 -241 -460 0
-653 241 460 0
653 241 -460 0
653 -241 460 0
-654 -244 -462 0
-654 244 462 0
654 244 -462 0
654 -244 462 0
-655 -247 -464 0
-655 247 464 0
655 247 -464 0
655 -247 464 0
-656 -250 -466 0
-656 250 466 0
656 250 -466 0
656 -250 466 0
-657 -253 -468 0
-657 253 468 0
657 253 -468 0
657 -253 468 0
-657 658 0
-656 658 0
-655 658 0
-654 658 0
-653 658 0
-652 658 0
-651 658 0
-650 658 0
-649 658 0
-648 658 0
-647 658 0
-646 658 0
-645 658 0
-644 658 0
-643 658 0
-642 658 0
-641 658 0
-640 658 0
-639 658 0
-638 658 0
-637 658 0
-636 658 0
-635 658 0
-634 658 0
-633 658 0
-632 658 0
-631 658 0
-630 658 0
-629 658 0
-628 658 0
-627 658 0
-626 658 0
657 656 655 654 653 652 651 650 649 648 647 646 645 644 643 642 641 640 639 638 637 636 635 634 633 632 631 630 629 628 627 626 -658 0
-659 -11 -20 0
-659 11 20 0
659 11 -20 0
659 -11 20 0
-660 -52 -17 0
-660 52 17 0
660 52 -17 0
660 -52 17 0
-661 -51 -13 0
-661 51 13 0
661 51 -13 0
661 -51 13 0
-662 -49 -15 0
-662 49 15 0
662 49 -15 0
662 -49 15 0
-662 663 0
-661 663 0
-660 663 0
-659 663 0
662 661 660 659 -663 0
663 -658 0
-664 -160 -476 0
-664 160 476 0
664 160 -476 0
664 -160 476 0
-665 -163 -478 0
-665 163 478 0
665 163 -478 0
665 -163 478 0
-666 -166 -480 0
-666 166 480 0
666 166 -480 0
666 -166 480 0
-667 -169 -482 0
-667 169 482 0
667 169 -482 0
667 -169 482 0
-668 -172 -484 0
-668 172 484 0
668 172 -484 0
668 -172 484 0
-669 -175 -486 0
-669 175 486 0
669 175 -486 0
669 -175 486 0
-670 -178 -488 0
-670 178 488 0
670 178 -488 0
670 -178 488 0
-671 -181 -490 0
-671 181 490 0
671 181 -490 0
671 -181 490 0
-672 -184 -492 0
-672 184 492 0
672 184 -492 0
672 -184 492 0
-673 -187 -494 0
-673 187 494 0
673 187 -494 0
673 -187 494 0
-674 -190 -496 0
-674 190 496 0
674 190 -496 0
674 -190 496 0
-675 -193 -498 0
-675 193 498 0
675 193 -498 0
675 -193 498 0
-676 -196 -500 0
-676 196 500 0
676 196 -500 0
676 -196 500 0
-677 -199 -502 0
-677 199 502 0
677 199 -502 0
677 -199 502 0
-678 -202 -504 0
-678 202 504 0
678 202 -504 0
678 -202 504 0
-679 -205 -506 0
-679 205 506 0
679 205 -506 0
679 -205 506 0
-680 -208 -508 0
-680 208 508 0
680 208 -508 0
680 -208 508 0
-681 -211 -510 0
-681 211 510 0
681 211 -510 0
681 -211 510 0
-682 -214 -512 0
-682 214 512 0
682 214 -512 0
682 -214 512 0
-683 -217 -514 0
-683 217 514 0
683 217 -514 0
683 -217 514 0
-684 -220 -516 0
-684 220 516 0
684 220 -516 0
684 -220 516 0
-685 -223 -518 0
-685 223 518 0
685 223 -518 0
685 -223 518 0
-686 -226 -520 0
-686 226 520 0
686 226 -520 0
686 -226 520 0
-687 -229 -522 0
-687 229 522 0
687 229 -522 0
687 -229 522 0
-688 -232 -524 0
-688 232 524 0
688 232 -524 0
688 -232 524 0
-689 -235 -526 0
-689 235 526 0
689 235 -526 0
689 -235 526 0
-690 -238 -528 0
-690 238 528 0
690 238 -528 0
690 -238 528 0
-691 -241 -530 0
-691 241 530 0
691 241 -530 0
691 -241 530 0
-692 -244 -532 0
-692 244 532 0
692 244 -532 0
692 -244 532 0
-693 -247 -534 0
-693 247 534 0
693 247 -534 0
693 -247 534 0
-694 -250 -536 0
-694 250 536 0
694 250 -536 0
694 -250 536 0
-695 -253 -538 0
-695 253 538 0
695 253 -538 0
695 -253 538 0
-695 696 0
-694 696 0
-693 696 0
-692 696 0
-691 696 0
-690 696 0
-689 696 0
-688 696 0
-687 696 0
-686 696 0
-685 696 0
-684 696 0
-683 696 0
-682 696 0
-681 696 0
-680 696 0
-679 696 0
-678 696 0
-677 696 0
-676 696 0
-675 696 0
-674 696 0
-673 696 0
-672 696 0
-671 696 0
-670 696 0
-669 696 0
-668 696 0
-667 696 0
-666 696 0
-665 696 0
-664 696 0
695 694 693 692 691 690 689 688 687 686 685 684 683 682 681 680 679 678 677 676 675 674 673 672 671 670 669 668 667 666 665 664 -696 0
-697 -11 -29 0
-697 11 29 0
697 11 -29 0
697 -11 29 0
-698 -52 -26 0
-698 52 26 0
698 52 -26 0
698 -52 26 0
-699 -51 -22 0
-699 51 22 0
699 51 -22 0
699 -51 22 0
-700 -49 -24 0
-700 49 24 0
700 49 -24 0
700 -49 24 0
-700 701 0
-699 701 0
-698 701 0
-697 701 0
700 699 698 697 -701 0
701 -696 0
-702 -12 -21 0
-702 12 21 0
702 12 -21 0
702 -12 21 0
-703 -56 -157 0
-703 56 157 0
703 56 -157 0
703 -56 157 0
-704 -55 -156 0
-704 55 156 0
704 55 -156 0
704 -55 156 0
-705 -53 -154 0
-705 53 154 0
705 53 -154 0
705 -53 154 0
-705 706 0
-704 706 0
-703 706 0
-702 706 0
705 704 703 702 -706 0
706 0
-707 -261 -336 0
-707 261 336 0
707 261 -336 0
707 -261 336 0
-708 -263 -338 0
-708 263 338 0
708 263 -338 0
708 -263 338 0
-709 -265 -340 0
-709 265 340 0
709 265 -340 0
709 -265 340 0
-710 -267 -342 0
-710 267 342 0
710 267 -342 0
710 -267 342 0
-711 -269 -344 0
-711 269 344 0
711 269 -344 0
711 -269 344 0
-712 -271 -346 0
-712 271 346 0
712 271 -346 0
712 -271 346 0
-713 -273 -348 0
-713 273 348 0
713 273 -348 0
713 -273 348 0
-714 -275 -350 0
-714 275 350 0
714 275 -350 0
714 -275 350 0
-715 -277 -352 0
-715 277 352 0
715 277 -352 0
715 -277 352 0
-716 -279 -354 0
-716 279 354 0
716 279 -354 0
716 -279 354 0
-717 -281 -356 0
-717 281 356 0
717 281 -356 0
717 -281 356 0
-718 -283 -358 0
-718 283 358 0
718 283 -358 0
718 -283 358 0
-719 -285 -360 0
-719 285 360 0
719 285 -360 0
719 -285 360 0
-720 -287 -362 0
-720 287 362 0
720 287 -362 0
720 -287 362 0
-721 -289 -364 0
-721 289 364 0
721 289 -364 0
721 -289 364 0
-722 -291 -366 0
-722 291 366 0
722 291 -366 0
722 -291 366 0
-723 -293 -368 0
-723 293 368 0
723 293 -368 0
723 -293 368 0
-724 -295 -370 0
-724 295 370 0
724 295 -370 0
724 -295 370 0
-725 -297 -372 0
-725 297 372 0
725 297 -372 0
725 -297 372 0
-726 -299 -374 0
-726 299 374 0
726 299 -374 0
726 -299 374 0
-727 -301 -376 0
-727 301 376 0
727 301 -376 0
727 -301 376 0
-728 -303 -378 0
-728 303 378 0
728 303 -378 0
728 -303 378 0
-729 -305 -380 0
-729 305 380 0
729 305 -380 0
729 -305 380 0
-730 -307 -382 0
-730 307 382 0
730 307 -382 0
730 -307 382 0
-731 -309 -384 0
-731 309 384 0
731 309 -384 0
731 -309 384 0
-732 -311 -386 0
-732 311 386 0
732 311 -386 0
732 -311 386 0
-733 -313 -388 0
-733 313 388 0
733 313 -388 0
733 -313 388 0
-734 -315 -390 0
-734 315 390 0
734 315 -390 0
734 -315 390 0
-735 -317 -392 0
-735 317 392 0
735 317 -392 0
735 -317 392 0
-736 -319 -394 0
-736 319 394 0
736 319 -394 0
736 -319 394 0
-737 -321 -396 0
-737 321 396 0
737 321 -396 0
737 -321 396 0
-738 -323 -398 0
-738 323 398 0
738 323 -398 0
738 -323 398 0
-738 739 0
-737 739 0
-736 739 0
-735 739 0
-734 739 0
-733 739 0
-732 739 0
-731 739 0
-730 739 0
-729 739 0
-728 739 0
-727 739 0
-726 739 0
-725 739 0
-724 739 0
-723 739 0
-722 739 0
-721 739 0
-720 739 0
-719 739 0
-718 739 0
-717 739 0
-716 739 0
-715 739 0
-714 739 0
-713 739 0
-712 739 0
-711 739 0
-710 739 0
-709 739 0
-708 739 0
-707 739 0
738 737 736 735 734 733 732 731 730 729 728 727 726 725 724 723 722 721 720 719 718 717 716 715 714 713 712 711 710 709 708 707 -739 0
-740 -12 -10 0
-740 12 10 0
740 12 -10 0
740 -12 10 0
-741 -56 -7 0
-741 56 7 0
741 56 -7 0
741 -56 7 0
-742 -55 -3 0
-742 55 3 0
742 55 -3 0
742 -55 3 0
-743 -53 -5 0
-743 53 5 0
743 53 -5 0
743 -53 5 0
-743 744 0
-742 744 0
-741 744 0
-740 744 0
743 742 741 740 -744 0
744 -739 0
-745 -261 -406 0
-745 261 406 0
745 261 -406 0
745 -261 406 0
-746 -263 -408 0
-746 263 408 0
746 263 -408 0
746 -263 408 0
-747 -265 -410 0
-747 265 410 0
747 265 -410 0
747 -265 410 0
-748 -267 -412 0
-748 267 412 0
748 267 -412 0
748 -267 412 0
-749 -269 -414 0
-749 269 414 0
749 269 -414 0
749 -269 414 0
-750 -271 -416 0
-750 271 416 0
750 271 -416 0
750 -271 416 0
-751 -273 -418 0
-751 273 418 0
751 273 -418 0
751 -273 418 0
-752 -275 -420 0
-752 275 420 0
752 275 -420 0
752 -275 420 0
-753 -277 -422 0
-753 277 422 0
753 277 -422 0
753 -277 422 0
-754 -279 -424 0
-754 279 424 0
754 279 -424 0
754 -279 424 0
-755 -281 -426 0
-755 281 426 0
755 281 -426 0
755 -281 426 0
-756 -283 -428 0
-756 283 428 0
756 283 -428 0
756 -283 428 0
-757 -285 -430 0
-757 285 430 0
757 285 -430 0
757 -285 430 0
-758 -287 -432 0
-758 287 432 0
758 287 -432 0
758 -287 432 0
-759 -289 -434 0
-759 289 434 0
759 289 -434 0
759 -289 434 0
-760 -291 -436 0
-760 291 436 0
760 291 -436 0
760 -291 436 0
-761 -293 -438 0
-761 293 438 0
761 293 -438 0
761 -293 438 0
-762 -295 -440 0
-762 295 440 0
762 295 -440 0
762 -295 440 0
-763 -297 -442 0
-763 297 442 0
763 297 -442 0
763 -297 442 0
-764 -299 -444 0
-764 299 444 0
764 299 -444 0
764 -299 444 0
-765 -301 -446 0
-765 301 446 0
765 301 -446 0
765 -301 446 0
-766 -303 -448 0
-766 303 448 0
766 303 -448 0
766 -303 448 0
-767 -305 -450 0
-767 305 450 0
767 305 -450 0
767 -305 450 0
-768 -307 -452 0
-768 307 452 0
768 307 -452 0
768 -307 452 0
-769 -309 -454 0
-769 309 454 0
769 309 -454 0
769 -309 454 0
-770 -311 -456 0
-770 311 456 0
770 311 -456 0
770 -311 456 0
-771 -313 -458 0
-771 313 458 0
771 313 -458 0
771 -313 458 0
-772 -315 -460 0
-772 315 460 0
772 315 -460 0
772 -315 460 0
-773 -317 -462 0
-773 317 462 0
773 317 -462 0
773 -317 462 0
-774 -319 -464 0
-774 319 464 0
774 319 -464 0
774 -319 464 0
-775 -321 -466 0
-775 321 466 0
775 321 -466 0
775 -321 466 0
-776 -323 -468 0
-776 323 468 0
776 323 -468 0
776 -323 468 0
-776 777 0
-775 777 0
-774 777 0
-773 777 0
-772 777 0
-771 777 0
-770 777 0
-769 777 0
-768 777 0
-767 777 0
-766 777 0
-765 777 0
-764 777 0
-763 777 0
-762 777 0
-761 777 0
-760 777 0
-759 777 0
-758 777 0
-757 777 0
-756 777 0
-755 777 0
-754 777 0
-753 777 0
-752 777 0
-751 777 0
-750 777 0
-749 777 0
-748 777 0
-747 777 0
-746 777 0
-745 777 0
776 775 774 773 772 771 770 769 768 767 766 765 764 763 762 761 760 759 758 757 756 755 754 753 752 751 750 749 748 747 746 745 -777 0
-778 -12 -20 0
-778 12 20 0
778 12 -20 0
778 -12 20 0
-779 -56 -17 0
-779 56 17 0
779 56 -17 0
779 -56 17 0
-780 -55 -13 0
-780 55 13 0
780 55 -13 0
780 -55 13 0
-781 -53 -15 0
-781 53 15 0
781 53 -15 0
781 -53 15 0
-781 782 0
-780 782 0
-779 782 0
-778 782 0
781 780 779 778 -782 0
782 -777 0
-783 -261 -476 0
-783 261 476 0
783 261 -476 0
783 -261 476 0
-784 -263 -478 0
-784 263 478 0
784 263 -478 0
784 -263 478 0
-785 -265 -480 0
-785 265 480 0
785 265 -480 0
785 -265 480 0
-786 -267 -482 0
-786 267 482 0
786 267 -482 0
786 -267 482 0
-787 -269 -484 0
-787 269 484 0
787 269 -484 0
787 -269 484 0
-788 -271 -486 0
-788 271 486 0
788 271 -486 0
788 -271 486 0
-789 -273 -488 0
-789 273 488 0
789 273 -488 0
789 -273 488 0
-790 -275 -490 0
-790 275 490 0
790 275 -490 0
790 -275 490 0
-791 -277 -492 0
-791 277 492 0
791 277 -492 0
791 -277 492 0
-792 -279 -494 0
-792 279 494 0
792 279 -494 0
792 -279 494 0
-793 -281 -496 0
-793 281 496 0
793 281 -496 0
793 -281 496 0
-794 -283 -498 0
-794 283 498 0
794 283 -498 0
794 -283 498 0
-795 -285 -500 0
-795 285 500 0
795 285 -500 0
795 -285 500 0
-796 -287 -502 0
-796 287 502 0
796 287 -502 0
796 -287 502 0
-797 -289 -504 0
-797 289 504 0
797 289 -504 0
797 -289 504 0
-798 -291 -506 0
-798 291 506 0
798 291 -506 0
798 -291 506 0
-799 -293 -508 0
-799 293 508 0
799 293 -508 0
799 -293 508 0
-800 -295 -510 0
-800 295 510 0
800 295 -510 0
800 -295 510 0
-801 -297 -512 0
-801 297 512 0
801 297 -512 0
801 -297 512 0
-802 -299 -514 0
-802 299 514 0
802 299 -514 0
802 -299 514 0
-803 -301 -516 0
-803 301 516 0
803 301 -516 0
803 -301 516 0
-804 -303 -518 0
-804 303 518 0
804 303 -518 0
804 -303 518 0
-805 -305 -520 0
-805 305 520 0
805 305 -520 0
805 -305 520 0
-806 -307 -522 0
-806 307 522 0
806 307 -522 0
806 -307 522 0
-807 -309 -524 0
-807 309 524 0
807 309 -524 0
807 -309 524 0
-808 -311 -526 0
-808 311 526 0
808 311 -526 0
808 -311 526 0
-809 -313 -528 0
-809 313 528 0
809 313 -528 0
809 -313 528 0
-810 -315 -530 0
-810 315 530 0
810 315 -530 0
810 -315 530 0
-811 -317 -532 0
-811 317 532 0
811 317 -532 0
811 -317 532 0
-812 -319 -534 0
-812 319 534 0
812 319 -534 0
812 -319 534 0
-813 -321 -536 0
-813 321 536 0
813 321 -536 0
813 -321 536 0
-814 -323 -538 0
-814 323 538 0
814 323 -538 0
814 -323 538 0
-814 815 0
-813 815 0
-812 815 0
-811 815 0
-810 815 0
-809 815 0
-808 815 0
-807 815 0
-806 815 0
-805 815 0
-804 815 0
-803 815 0
-802 815 0
-801 815 0
-800 815 0
-799 815 0
-798 815 0
-797 815 0
-796 815 0
-795 815 0
-794 815 0
-793 815 0
-792 815 0
-791 815 0
-790 815 0
-789 815 0
-788 815 0
-787 815 0
-786 815 0
-785 815 0
-784 815 0
-783 815 0
814 813 812 811 810 809 808 807 806 805 804 803 802 801 800 799 798 797 796 795 794 793 792 791 790 789 788 787 786 785 784 783 -815 0
-816 -12 -29 0
-816 12 29 0
816 12 -29 0
816 -12 29 0
-817 -56 -26 0
-817 56 26 0
817 56 -26 0
817 -56 26 0
-818 -55 -22 0
-818 55 22 0
818 55 -22 0
818 -55 22 0
-819 -53 -24 0
-819 53 24 0
819 53 -24 0
819 -53 24 0
-819 820 0
-818 820 0
-817 820 0
-816 820 0
819 818 817 816 -820 0
820 -815 0
-821 -21 -10 0
-821 21 10 0
821 21 -10 0
821 -21 10 0
-822 -157 -7 0
-822 157 7 0
822 157 -7 0
822 -157 7 0
-823 -156 -3 0
-823 156 3 0
823 156 -3 0
823 -156 3 0
-824 -154 -5 0
-824 154 5 0
824 154 -5 0
824 -154 5 0
-824 825 0
-823 825 0
-822 825 0
-821 825 0
824 823 822 821 -825 0
825 0
-826 -21 -20 0
-826 21 20 0
826 21 -20 0
826 -21 20 0
-827 -157 -17 0
-827 157 17 0
827 157 -17 0
827 -157 17 0
-828 -156 -13 0
-828 156 13 0
828 156 -13 0
828 -156 13 0
-829 -154 -15 0
-829 154 15 0
829 154 -15 0
829 -154 15 0
-829 830 0
-828 830 0
-827 830 0
-826 830 0
829 828 827 826 -830 0
830 0
-831 -21 -29 0
-831 21 29 0
831 21 -29 0
831 -21 29 0
-832 -157 -26 0
-832 157 26 0
832 157 -26 0
832 -157 26 0
-833 -156 -22 0
-833 156 22 0
833 156 -22 0
833 -156 22 0
-834 -154 -24 0
-834 154 24 0
834 154 -24 0
834 -154 24 0
-834 835 0
-833 835 0
-832 835 0
-831 835 0
834 833 832 831 -835 0
835 0
-836 -336 -406 0
-836 336 406 0
836 336 -406 0
836 -336 406 0
-837 -338 -408 0
-837 338 408 0
837 338 -408 0
837 -338 408 0
-838 -340 -410 0
-838 340 410 0
838 340 -410 0
838 -340 410 0
-839 -342 -412 0
-839 342 412 0
839 342 -412 0
839 -342 412 0
-840 -344 -414 0
-840 344 414 0
840 344 -414 0
840 -344 414 0
-841 -346 -416 0
-841 346 416 0
841 346 -416 0
841 -346 416 0
-842 -348 -418 0
-842 348 418 0
842 348 -418 0
842 -348 418 0
-843 -350 -420 0
-843 350 420 0
843 350 -420 0
843 -350 420 0
-844 -352 -422 0
-844 352 422 0
844 352 -422 0
844 -352 422 0
-845 -354 -424 0
-845 354 424 0
845 354 -424 0
845 -354 424 0
-846 -356 -426 0
-846 356 426 0
846 356 -426 0
846 -356 426 0
-847 -358 -428 0
-847 358 428 0
847 358 -428 0
847 -358 428 0
-848 -360 -430 0
-848 360 430 0
848 360 -430 0
848 -360 430 0
-849 -362 -432 0
-849 362 432 0
849 362 -432 0
849 -362 432 0
-850 -364 -434 0
-850 364 434 0
850 364 -434 0
850 -364 434 0
-851 -366 -436 0
-851 366 436 0
851 366 -436 0
851 -366 436 0
-852 -368 -438 0
-852 368 438 0
852 368 -438 0
852 -368 438 0
-853 -370 -440 0
-853 370 440 0
853 370 -440 0
853 -370 440 0
-854 -372 -442 0
-854 372 442 0
854 372 -442 0
854 -372 442 0
-855 -374 -444 0
-855 374 444 0
855 374 -444 0
855 -374 444 0
-856 -376 -446 0
-856 376 446 0
856 376 -446 0
856 -376 446 0
-857 -378 -448 0
-857 378 448 0
857 378 -448 0
857 -378 448 0
-858 -380 -450 0
-858 380 450 0
858 380 -450 0
858 -380 450 0
-859 -382 -452 0
-859 382 452 0
859 382 -452 0
859 -382 452 0
-860 -384 -454 0
-860 384 454 0
860 384 -454 0
860 -384 454 0
-861 -386 -456 0
-861 386 456 0
861 386 -456 0
861 -386 456 0
-862 -388 -458 0
-862 388 458 0
862 388 -458 0
862 -388 458 0
-863 -390 -460 0
-863 390 460 0
863 390 -460 0
863 -390 460 0
-864 -392 -462 0
-864 392 462 0
864 392 -462 0
864 -392 462 0
-865 -394 -464 0
-865 394 464 0
865 394 -464 0
865 -394 464 0
-866 -396 -466 0
-866 396 466 0
866 396 -466 0
866 -396 466 0
-867 -398 -468 0
-867 398 468 0
867 398 -468 0
867 -398 468 0
-867 868 0
-866 868 0
-865 868 0
-864 868 0
-863 868 0
-862 868 0
-861 868 0
-860 868 0
-859 868 0
-858 868 0
-857 868 0
-856 868 0
-855 868 0
-854 868 0
-853 868 0
-852 868 0
-851 868 0
-850 868 0
-849 868 0
-848 868 0
-847 868 0
-846 868 0
-845 868 0
-844 868 0
-843 868 0
-842 868 0
-841 868 0
-840 868 0
-839 868 0
-838 868 0
-837 868 0
-836 868 0
867 866 865 864 863 862 861 860 859 858 857 856 855 854 853 852 851 850 849 848 847 846 845 844 843 842 841 840 839 838 837 836 -868 0
34 -868 0
-869 -336 -476 0
-869 336 476 0
869 336 -476 0
869 -336 476 0
-870 -338 -478 0
-870 338 478 0
870 338 -478 0
870 -338 478 0
-871 -340 -480 0
-871 340 480 0
871 340 -480 0
871 -340 480 0
-872 -342 -482 0
-872 342 482 0
872 342 -482 0
872 -342 482 0
-873 -344 -484 0
-873 344 484 0
873 344 -484 0
873 -344 484 0
-874 -346 -486 0
-874 346 486 0
874 346 -486 0
874 -346 486 0
-875 -348 -488 0
-875 348 488 0
875 348 -488 0
875 -348 488 0
-876 -350 -490 0
-876 350 490 0
876 350 -490 0
876 -350 490 0
-877 -352 -492 0
-877 352 492 0
877 352 -492 0
877 -352 492 0
-878 -354 -494 0
-878 354 494 0
878 354 -494 0
878 -354 494 0
-879 -356 -496 0
-879 356 496 0
879 356 -496 0
879 -356 496 0
-880 -358 -498 0
-880 358 498 0
880 358 -498 0
880 -358 498 0
-881 -360 -500 0
-881 360 500 0
881 360 -500 0
881 -360 500 0
-882 -362 -502 0
-882 362 502 0
882 362 -502 0
882 -362 502 0
-883 -364 -504 0
-883 364 504 0
883 364 -504 0
883 -364 504 0
-884 -366 -506 0
-884 366 506 0
884 366 -506 0
884 -366 506 0
-885 -368 -508 0
-885 368 508 0
885 368 -508 0
885 -368 508 0
-886 -370 -510 0
-886 370 510 0
886 370 -510 0
886 -370 510 0
-887 -372 -512 0
-887 372 512 0
887 372 -512 0
887 -372 512 0
-888 -374 -514 0
-888 374 514 0
888 374 -514 0
888 -374 514 0
-889 -376 -516 0
-889 376 516 0
889 376 -516 0
889 -376 516 0
-890 -378 -518 0
-890 378 518 0
890 378 -518 0
890 -378 518 0
-891 -380 -520 0
-891 380 520 0
891 380 -520 0
891 -380 520 0
-892 -382 -522 0
-892 382 522 0
892 382 -522 0
892 -382 522 0
-893 -384 -524 0
-893 384 524 0
893 384 -524 0
893 -384 524 0
-894 -386 -526 0
-894 386 526 0
894 386 -526 0
894 -386 526 0
-895 -388 -528 0
-895 388 528 0
895 388 -528 0
895 -388 528 0
-896 -390 -530 0
-896 390 530 0
896 390 -530 0
896 -390 530 0
-897 -392 -532 0
-897 392 532 0
897 392 -532 0
897 -392 532 0
-898 -394 -534 0
-898 394 534 0
898 394 -534 0
898 -394 534 0
-899 -396 -536 0
-899 396 536 0
899 396 -536 0
899 -396 536 0
-900 -398 -538 0
-900 398 538 0
900 398 -538 0
900 -398 538 0
-900 901 0
-899 901 0
-898 901 0
-897 901 0
-896 901 0
-895 901 0
-894 901 0
-893 901 0
-892 901 0
-891 901 0
-890 901 0
-889 901 0
-888 901 0
-887 901 0
-886 901 0
-885 901 0
-884 901 0
-883 901 0
-882 901 0
-881 901 0
-880 901 0
-879 901 0
-878 901 0
-877 901 0
-876 901 0
-875 901 0
-874 901 0
-873 901 0
-872 901 0
-871 901 0
-870 901 0
-869 901 0
900 899 898 897 896 895 894 893 892 891 890 889 888 887 886 885 884 883 882 881 880 879 878 877 876 875 874 873 872 871 870 869 -901 0
39 -901 0
-902 -406 -476 0
-902 406 476 0
902 406 -476 0
902 -406 476 0
-903 -408 -478 0
-903 408 478 0
903 408 -478 0
903 -408 478 0
-904 -410 -480 0
-904 410 480 0
904 410 -480 0
904 -410 480 0
-905 -412 -482 0
-905 412 482 0
905 412 -482 0
905 -412 482 0
-906 -414 -484 0
-906 414 484 0
906 414 -484 0
906 -414 484 0
-907 -416 -486 0
-907 416 486 0
907 416 -486 0
907 -416 486 0
-908 -418 -488 0
-908 418 488 0
908 418 -488 0
908 -418 488 0
-909 -420 -490 0
-909 420 490 0
909 420 -490 0
909 -420 490 0
-910 -422 -492 0
-910 422 492 0
910 422 -492 0
910 -422 492 0
-911 -424 -494 0
-911 424 494 0
911 424 -494 0
911 -424 494 0
-912 -426 -496 0
-912 426 496 0
912 426 -496 0
912 -426 496 0
-913 -428 -498 0
-913 428 498 0
913 428 -498 0
913 -428 498 0
-914 -430 -500 0
-914 430 500 0
914 430 -500 0
914 -430 500 0
-915 -432 -502 0
-915 432 502 0
915 432 -502 0
915 -432 502 0
-916 -434 -504 0
-916 434 504 0
916 434 -504 0
916 -434 504 0
-917 -436 -506 0
-917 436 506 0
917 436 -506 0
917 -436 506 0
-918 -438 -508 0
-918 438 508 0
918 438 -508 0
918 -438 508 0
-919 -440 -510 0
-919 440 510 0
919 440 -510 0
919 -440 510 0
-920 -442 -512 0
-920 442 512 0
920 442 -512 0
920 -442 512 0
-921 -444 -514 0
-921 444 514 0
921 444 -514 0
921 -444 514 0
-922 -446 -516 0
-922 446 516 0
922 446 -516 0
922 -446 516 0
-923 -448 -518 0
-923 448 518 0
923 448 -518 0
923 -448 518 0
-924 -450 -520 0
-924 450 520 0
924 450 -520 0
924 -450 520 0
-925 -452 -522 0
-925 452 522 0
925 452 -522 0
925 -452 522 0
-926 -454 -524 0
-926 454 524 0
926 454 -524 0
926 -454 524 0
-927 -456 -526 0
-927 456 526 0
927 456 -526 0
927 -456 526 0
-928 -458 -528 0
-928 458 528 0
928 458 -528 0
928 -458 528 0
-929 -460 -530 0
-929 460 530 0
929 460 -530 0
929 -460 530 0
-930 -462 -532 0
-930 462 532 0
930 462 -532 0
930 -462 532 0
-931 -464 -534 0
-931 464 534 0
931 464 -534 0
931 -464 534 0
-932 -466 -536 0
-932 466 536 0
932 466 -536 0
932 -466 536 0
-933 -468 -538 0
-933 468 538 0
933 468 -538 0
933 -468 538 0
-933 934 0
-932 934 0
-931 934 0
-930 934 0
-929 934 0
-928 934 0
-927 934 0
-926 934 0
-925 934 0
-924 934 0
-923 934 0
-922 934 0
-921 934 0
-920 934 0
-919 934 0
-918 934 0
-917 934 0
-916 934 0
-915 934 0
-914 934 0
-913 934 0
-912 934 0
-911 934 0
-910 934 0
-909 934 0
-908 934 0
-907 934 0
-906 934 0
-905 934 0
-904 934 0
-903 934 0
-902 934 0
933 932 931 930 929 928 927 926 925 924 923 922 921 920 919 918 917 916 915 914 913 912 911 910 909 908 907 906 905 904 903 902 -934 0
44 -934 0
-935 -936 -336 0
-935 936 336 0
935 936 -336 0
935 -936 336 0
-937 -938 -338 0
-937 938 338 0
937 938 -338 0
937 -938 338 0
-939 -940 -340 0
-939 940 340 0
939 940 -340 0
939 -940 340 0
-941 -942 -342 0
-941 942 342 0
941 942 -342 0
941 -942 342 0
-943 -944 -344 0
-943 944 344 0
943 944 -344 0
943 -944 344 0
-945 -946 -346 0
-945 946 346 0
945 946 -346 0
945 -946 346 0
-947 -948 -348 0
-947 948 348 0
947 948 -348 0
947 -948 348 0
-949 -950 -350 0
-949 950 350 0
949 950 -350 0
949 -950 350 0
-951 -952 -352 0
-951 952 352 0
951 952 -352 0
951 -952 352 0
-953 -954 -354 0
-953 954 354 0
953 954 -354 0
953 -954 354 0
-955 -956 -356 0
-955 956 356 0
955 956 -356 0
955 -956 356 0
-957 -958 -358 0
-957 958 358 0
957 958 -358 0
957 -958 358 0
-959 -960 -360 0
-959 960 360 0
959 960 -360 0
959 -960 360 0
-961 -962 -362 0
-961 962 362 0
961 962 -362 0
961 -962 362 0
-963 -964 -364 0
-963 964 364 0
963 964 -364 0
963 -964 364 0
-965 -966 -366 0
-965 966 366 0
965 966 -366 0
965 -966 366 0
-967 -968 -368 0
-967 968 368 0
967 968 -368 0
967 -968 368 0
-969 -970 -370 0
-969 970 370 0
969 970 -370 0
969 -970 370 0
-971 -972 -372 0
-971 972 372 0
971 972 -372 0
971 -972 372 0
-973 -974 -374 0
-973 974 374 0
973 974 -374 0
973 -974 374 0
-975 -976 -376 0
-975 976 376 0
975 976 -376 0
975 -976 376 0
-977 -978 -378 0
-977 978 378 0
977 978 -378 0
977 -978 378 0
-979 -980 -380 0
-979 980 380 0
979 980 -380 0
979 -980 380 0
-981 -982 -382 0
-981 982 382 0
981 982 -382 0
981 -982 382 0
-983 -984 -384 0
-983 984 384 0
983 984 -384 0
983 -984 384 0
-985 -986 -386 0
-985 986 386 0
985 986 -386 0
985 -986 386 0
-987 -988 -388 0
-987 988 388 0
987 988 -388 0
987 -988 388 0
-989 -990 -390 0
-989 990 390 0
989 990 -390 0
989 -990 390 0
-991 -992 -392 0
-991 992 392 0
991 992 -392 0
991 -992 392 0
-993 -994 -394 0
-993 994 394 0
993 994 -394 0
993 -994 394 0
-995 -996 -396 0
-995 996 396 0
995 996 -396 0
995 -996 396 0
-997 -998 -398 0
-997 998 398 0
997 998 -398 0
997 -998 398 0
-997 999 0
-995 999 0
-993 999 0
-991 999 0
-989 999 0
-987 999 0
-985 999 0
-983 999 0
-981 999 0
-979 999 0
-977 999 0
-975 999 0
-973 999 0
-971 999 0
-969 999 0
-967 999 0
-965 999 0
-963 999 0
-961 999 0
-959 999 0
-957 999 0
-955 999 0
-953 999 0
-951 999 0
-949 999 0
-947 999 0
-945 999 0
-943 999 0
-941 999 0
-939 999 0
-937 999 0
-935 999 0
997 995 993 991 989 987 985 983 981 979 977 975 973 971 969 967 965 963 961 959 957 955 953 951 949 947 945 943 941 939 937 935 -999 0
5 1000 0
3 1000 0
-7 1000 0
-10 1000 0
-5 -3 7 10 -1000 0
1000 -999 0
-1001 -936 -406 0
-1001 936 406 0
1001 936 -406 0
1001 -936 406 0
-1002 -938 -408 0
-1002 938 408 0
1002 938 -408 0
1002 -938 408 0
-1003 -940 -410 0
-1003 940 410 0
1003 940 -410 0
1003 -940 410 0
-1004 -942 -412 0
-1004 942 412 0
1004 942 -412 0
1004 -942 412 0
-1005 -944 -414 0
-1005 944 414 0
1005 944 -414 0
1005 -944 414 0
-1006 -946 -416 0
-1006 946 416 0
1006 946 -416 0
1006 -946 416 0
-1007 -948 -418 0
-1007 948 418 0
1007 948 -418 0
1007 -948 418 0
-1008 -950 -420 0
-1008 950 420 0
1008 950 -420 0
1008 -950 420 0
-1009 -952 -422 0
-1009 952 422 0
1009 952 -422 0
1009 -952 422 0
-1010 -954 -424 0
-1010 954 424 0
1010 954 -424 0
1010 -954 424 0
-1011 -956 -426 0
-1011 956 426 0
1011 956 -426 0
1011 -956 426 0
-1012 -958 -428 0
-1012 958 428 0
1012 958 -428 0
1012 -958 428 0
-1013 -960 -430 0
-1013 960 430 0
1013 960 -430 0
1013 -960 430 0
-1014 -962 -432 0
-1014 962 432 0
1014 962 -432 0
1014 -962 432 0
-1015 -964 -434 0
-1015 964 434 0
1015 964 -434 0
1015 -964 434 0
-1016 -966 -436 0
-1016 966 436 0
1016 966 -436 0
1016 -966 436 0
-1017 -968 -438 0
-1017 968 438 0
1017 968 -438 0
1017 -968 438 0
-1018 -970 -440 0
-1018 970 440 0
1018 970 -440 0
1018 -970 440 0
-1019 -972 -442 0
-1019 972 442 0
1019 972 -442 0
1019 -972 442 0
-1020 -974 -444 0
-1020 974 444 0
1020 974 -444 0
1020 -974 444 0
-1021 -976 -446 0
-1021 976 446 0
1021 976 -446 0
1021 -976 446 0
-1022 -978 -448 0
-1022 978 448 0
1022 978 -448 0
1022 -978 448 0
-1023 -980 -450 0
-1023 980 450 0
1023 980 -450 0
1023 -980 450 0
-1024 -982 -452 0
-1024 982 452 0
1024 982 -452 0
1024 -982 452 0
-1025 -984 -454 0
-1025 984 454 0
1025 984 -454 0
1025 -984 454 0
-1026 -986 -456 0
-1026 986 456 0
1026 986 -456 0
1026 -986 456 0
-1027 -988 -458 0
-1027 988 458 0
1027 988 -458 0
1027 -988 458 0
-1028 -990 -460 0
-1028 990 460 0
1028 990 -460 0
1028 -990 460 0
-1029 -992 -462 0
-1029 992 462 0
1029 992 -462 0
1029 -992 462 0
-1030 -994 -464 0
-1030 994 464 0
1030 994 -464 0
1030 -994 464 0
-1031 -996 -466 0
-1031 996 466 0
1031 996 -466 0
1031 -996 466 0
-1032 -998 -468 0
-1032 998 468 0
1032 998 -468 0
1032 -998 468 0
-1032 1033 0
-1031 1033 0
-1030 1033 0
-1029 1033 0
-1028 1033 0
-1027 1033 0
-1026 1033 0
-1025 1033 0
-1024 1033 0
-1023 1033 0
-1022 1033 0
-1021 1033 0
-1020 1033 0
-1019 1033 0
-1018 1033 0
-1017 1033 0
-1016 1033 0
-1015 1033 0
-1014 1033 0
-1013 1033 0
-1012 1033 0
-1011 1033 0
-1010 1033 0
-1009 1033 0
-1008 1033 0
-1007 1033 0
-1006 1033 0
-1005 1033 0
-1004 1033 0
-1003 1033 0
-1002 1033 0
-1001 1033 0
1032 1031 1030 1029 1028 1027 1026 1025 1024 1023 1022 1021 1020 1019 1018 1017 1016 1015 1014 1013 1012 1011 1010 1009 1008 1007 1006 1005 1004 1003 1002 1001 -1033 0
15 1034 0
13 1034 0
-17 1034 0
-20 1034 0
-15 -13 17 20 -1034 0
1034 -1033 0
-1035 -936 -476 0
-1035 936 476 0
1035 936 -476 0
1035 -936 476 0
-1036 -938 -478 0
-1036 938 478 0
1036 938 -478 0
1036 -938 478 0
-1037 -940 -480 0
-1037 940 480 0
1037 940 -480 0
1037 -940 480 0
-1038 -942 -482 0
-1038 942 482 0
1038 942 -482 0
1038 -942 482 0
-1039 -944 -484 0
-1039 944 484 0
1039 944 -484 0
1039 -944 484 0
-1040 -946 -486 0
-1040 946 486 0
1040 946 -486 0
1040 -946 486 0
-1041 -948 -488 0
-1041 948 488 0
1041 948 -488 0
1041 -948 488 0
-1042 -950 -490 0
-1042 950 490 0
1042 950 -490 0
1042 -950 490 0
-1043 -952 -492 0
-1043 952 492 0
1043 952 -492 0
1043 -952 492 0
-1044 -954 -494 0
-1044 954 494 0
1044 954 -494 0
1044 -954 494 0
-1045 -956 -496 0
-1045 956 496 0
1045 956 -496 0
1045 -956 496 0
-1046 -958 -498 0
-1046 958 498 0
1046 958 -498 0
1046 -958 498 0
-1047 -960 -500 0
-1047 960 500 0
1047 960 -500 0
1047 -960 500 0
-1048 -962 -502 0
-1048 962 502 0
1048 962 -502 0
1048 -962 502 0
-1049 -964 -504 0
-1049 964 504 0
1049 964 -504 0
1049 -964 504 0
-1050 -966 -506 0
-1050 966 506 0
1050 966 -506 0
1050 -966 506 0
-1051 -968 -508 0
-1051 968 508 0
1051 968 -508 0
1051 -968 508 0
-1052 -970 -510 0
-1052 970 510 0
1052 970 -510 0
1052 -970 510 0
-1053 -972 -512 0
-1053 972 512 0
1053 972 -512 0
1053 -972 512 0
-1054 -974 -514 0
-1054 974 514 0
1054 974 -514 0
1054 -974 514 0
-1055 -976 -516 0
-1055 976 516 0
1055 976 -516 0
1055 -976 516 0
-1056 -978 -518 0
-1056 978 518 0
1056 978 -518 0
1056 -978 518 0
-1057 -980 -520 0
-1057 980 520 0
1057 980 -520 0
1057 -980 520 0
-1058 -982 -522 0
-1058 982 522 0
1058 982 -522 0
1058 -982 522 0
-1059 -984 -524 0
-1059 984 524 0
1059 984 -524 0
1059 -984 524 0
-1060 -986 -526 0
-1060 986 526 0
1060 986 -526 0
1060 -986 526 0
-1061 -988 -528 0
-1061 988 528 0
1061 988 -528 0
1061 -988 528 0
-1062 -990 -530 0
-1062 990 530 0
1062 990 -530 0
1062 -990 530 0
-1063 -992 -532 0
-1063 992 532 0
1063 992 -532 0
1063 -992 532 0
-1064 -994 -534 0
-1064 994 534 0
1064 994 -534 0
1064 -994 534 0
-1065 -996 -536 0
-1065 996 536 0
1065 996 -536 0
1065 -996 536 0
-1066 -998 -538 0
-1066 998 538 0
1066 998 -538 0
1066 -998 538 0
-1066 1067 0
-1065 1067 0
-1064 1067 0
-1063 1067 0
-1062 1067 0
-1061 1067 0
-1060 1067 0
-1059 1067 0
-1058 1067 0
-1057 1067 0
-1056 1067 0
-1055 1067 0
-1054 1067 0
-1053 1067 0
-1052 1067 0
-1051 1067 0
-1050 1067 0
-1049 1067 0
-1048 1067 0
-1047 1067 0
-1046 1067 0
-1045 1067 0
-1044 1067 0
-1043 1067 0
-1042 1067 0
-1041 1067 0
-1040 1067 0
-1039 1067 0
-1038 1067 0
-1037 1067 0
-1036 1067 0
-1035 1067 0
1066 1065 1064 1063 1062 1061 1060 1059 1058 1057 1056 1055 1054 1053 1052 1051 1050 1049 1048 1047 1046 1045 1044 1043 1042 1041 1040 1039 1038 1037 1036 1035 -1067 0
24 1068 0
22 1068 0
-26 1068 0
-29 1068 0
-24 -22 26 29 -1068 0
1068 -1067 0
-1069 -398 -252 0
-1069 398 252 0
1069 398 -252 0
1069 -398 252 0
-1069 0
253 1070 0
323 1070 0
-253 -323 -1070 0
-1071 468 -1070 0
-1071 -468 1070 0
1071 -468 -1070 0
1071 468 1070 0
-1071 0
-1072 -538 -151 0
-1072 538 151 0
1072 538 -151 0
1072 -538 151 0
-1072 0
-1073 -152 -1074 0
-1073 152 1074 0
1073 152 -1074 0
1073 -152 1074 0
-1073 0
-1075 -1074 -998 0
-1075 1074 998 0
1075 1074 -998 0
1075 -1074 998 0
-1075 0
45 -1076 0
-45 1076 0
47 -1077 0
-47 1077 0
48 -1078 0
-48 1078 0
2 -1079 0
-2 1079 0
49 -1080 0
-49 1080 0
51 -1081 0
-51 1081 0
52 -1082 0
-52 1082 0
11 -1083 0
-11 1083 0
53 -1084 0
-53 1084 0
55 -1085 0
-55 1085 0
56 -1086 0
-56 1086 0
12 -1087 0
-12 1087 0
154 -1088 0
-154 1088 0
156 -1089 0
-156 1089 0
157 -1090 0
-157 1090 0
21 -1091 0
-21 1091 0
5 -1092 0
-5 1092 0
3 -1093 0
-3 1093 0
7 -1094 0
-7 1094 0
10 -1095 0
-10 1095 0
15 -1096 0
-15 1096 0
13 -1097 0
-13 1097 0
17 -1098 0
-17 1098 0
20 -1099 0
-20 1099 0
24 -1100 0
-24 1100 0
22 -1101 0
-22 1101 0
26 -1102 0
-26 1102 0
29 -1103 0
-29 1103 0
-48 0
-2 -48 0
-7 0
-10 -7 0
-52 0
-11 -52 0
-56 0
-12 -56 0
-17 0
-20 -17 0
-157 0
-21 -157 0
-26 0
-29 -26 0
47 1104 0
-5 45 1104 0
-47 5 -1104 0
-47 -45 -1104 0
-3 1105 0
-5 45 1105 0
3 5 -1105 0
3 -45 -1105 0
-3 1106 0
47 1106 0
3 -47 -1106 0
48 1107 0
-1106 -1105 -1104 1107 0
-48 1106 -1107 0
-48 1105 -1107 0
-48 1104 -1107 0
-7 1108 0
-1106 -1105 -1104 1108 0
7 1106 -1108 0
7 1105 -1108 0
7 1104 -1108 0
-7 1109 0
48 1109 0
7 -48 -1109 0
10 1109 0
10 1108 0
10 1107 0
-2 1109 0
-2 1108 0
-2 1107 0
51 1110 0
-15 49 1110 0
-51 15 -1110 0
-51 -49 -1110 0
-13 1111 0
-15 49 1111 0
13 15 -1111 0
13 -49 -1111 0
-13 1112 0
51 1112 0
13 -51 -1112 0
52 1113 0
-1112 -1111 -1110 1113 0
-52 1112 -1113 0
-52 1111 -1113 0
-52 1110 -1113 0
-17 1114 0
-1112 -1111 -1110 1114 0
17 1112 -1114 0
17 1111 -1114 0
17 1110 -1114 0
-17 1115 0
52 1115 0
17 -52 -1115 0
20 1115 0
20 1114 0
20 1113 0
-11 1115 0
-11 1114 0
-11 1113 0
55 1116 0
-15 53 1116 0
-55 15 -1116 0
-55 -53 -1116 0
-13 1117 0
-15 53 1117 0
13 15 -1117 0
13 -53 -1117 0
-13 1118 0
55 1118 0
13 -55 -1118 0
56 1119 0
-1118 -1117 -1116 1119 0
-56 1118 -1119 0
-56 1117 -1119 0
-56 1116 -1119 0
-17 1120 0
-1118 -1117 -1116 1120 0
17 1118 -1120 0
17 1117 -1120 0
17 1116 -1120 0
-17 1121 0
56 1121 0
17 -56 -1121 0
20 1121 0
20 1120 0
20 1119 0
-12 1121 0
-12 1120 0
-12 1119 0
156 1122 0
-24 154 1122 0
-156 24 -1122 0
-156 -154 -1122 0
-22 1123 0
-24 154 1123 0
22 24 -1123 0
22 -154 -1123 0
-22 1124 0
156 1124 0
22 -156 -1124 0
157 1125 0
-1124 -1123 -1122 1125 0
-157 1124 -1125 0
-157 1123 -1125 0
-157 1122 -1125 0
-26 1126 0
-1124 -1123 -1122 1126 0
26 1124 -1126 0
26 1123 -1126 0
26 1122 -1126 0
-26 1127 0
157 1127 0
26 -157 -1127 0
29 1127 0
29 1126 0
29 1125 0
-21 1127 0
-21 1126 0
-21 1125 0
-1128 -396 249 -252 0
-1128 -396 -249 252 0
-1128 396 249 252 0
-1128 396 -249 -252 0
1128 396 -249 252 0
1128 396 249 -252 0
1128 -396 -249 -252 0
1128 -396 249 252 0
-1128 0
-249 1129 0
-252 1129 0
249 252 -1129 0
-1130 -394 246 -1129 0
-1130 -394 -246 1129 0
-1130 394 246 1129 0
-1130 394 -246 -1129 0
1130 394 -246 1129 0
1130 394 246 -1129 0
1130 -394 -246 -1129 0
1130 -394 246 1129 0
-1130 0
-246 1131 0
-1129 1131 0
246 1129 -1131 0
-1132 -392 243 -1131 0
-1132 -392 -243 1131 0
-1132 392 243 1131 0
-1132 392 -243 -1131 0
1132 392 -243 1131 0
1132 392 243 -1131 0
1132 -392 -243 -1131 0
1132 -392 243 1131 0
-1132 0
-243 1133 0
-1131 1133 0
243 1131 -1133 0
-1134 -390 240 -1133 0
-1134 -390 -240 1133 0
-1134 390 240 1133 0
-1134 390 -240 -1133 0
1134 390 -240 1133 0
1134 390 240 -1133 0
1134 -390 -240 -1133 0
1134 -390 240 1133 0
-1134 0
-240 1135 0
-1133 1135 0
240 1133 -1135 0
-1136 -388 237 -1135 0
-1136 -388 -237 1135 0
-1136 388 237 1135 0
-1136 388 -237 -1135 0
1136 388 -237 1135 0
1136 388 237 -1135 0
1136 -388 -237 -1135 0
1136 -388 237 1135 0
-1136 0
-237 1137 0
-1135 1137 0
237 1135 -1137 0
-1138 -386 234 -1137 0
-1138 -386 -234 1137 0
-1138 386 234 1137 0
-1138 386 -234 -1137 0
1138 386 -234 1137 0
1138 386 234 -1137 0
1138 -386 -234 -1137 0
1138 -386 234 1137 0
-1138 0
-234 1139 0
-1137 1139 0
234 1137 -1139 0
-1140 -384 231 -1139 0
-1140 -384 -231 1139 0
-1140 384 231 1139 0
-1140 384 -231 -1139 0
1140 384 -231 1139 0
1140 384 231 -1139 0
1140 -384 -231 -1139 0
1140 -384 231 1139 0
-1140 0
-231 1141 0
-1139 1141 0
231 1139 -1141 0
-1142 -382 228 -1141 0
-1142 -382 -228 1141 0
-1142 382 228 1141 0
-1142 382 -228 -1141 0
1142 382 -228 1141 0
1142 382 228 -1141 0
1142 -382 -228 -1141 0
1142 -382 228 1141 0
-1142 0
-228 1143 0
-1141 1143 0
228 1141 -1143 0
-1144 -380 225 -1143 0
-1144 -380 -225 1143 0
-1144 380 225 1143 0
-1144 380 -225 -1143 0
1144 380 -225 1143 0
1144 380 225 -1143 0
1144 -380 -225 -1143 0
1144 -380 225 1143 0
-1144 0
-225 1145 0
-1143 1145 0
225 1143 -1145 0
-1146 -378 222 -1145 0
-1146 -378 -222 1145 0
-1146 378 222 1145 0
-1146 378 -222 -1145 0
1146 378 -222 1145 0
1146 378 222 -1145 0
1146 -378 -222 -1145 0
1146 -378 222 1145 0
-1146 0
-222 1147 0
-1145 1147 0
222 1145 -1147 0
-1148 -376 219 -1147 0
-1148 -376 -219 1147 0
-1148 376 219 1147 0
-1148 376 -219 -1147 0
1148 376 -219 1147 0
1148 376 219 -1147 0
1148 -376 -219 -1147 0
1148 -376 219 1147 0
-1148 0
-219 1149 0
-1147 1149 0
219 1147 -1149 0
-1150 -374 216 -1149 0
-1150 -374 -216 1149 0
-1150 374 216 1149 0
-1150 374 -216 -1149 0
1150 374 -216 1149 0
1150 374 216 -1149 0
1150 -374 -216 -1149 0
1150 -374 216 1149 0
-1150 0
-216 1151 0
-1149 1151 0
216 1149 -1151 0
-1152 -372 213 -1151 0
-1152 -372 -213 1151 0
-1152 372 213 1151 0
-1152 372 -213 -1151 0
1152 372 -213 1151 0
1152 372 213 -1151 0
1152 -372 -213 -1151 0
1152 -372 213 1151 0
-1152 0
-213 1153 0
-1151 1153 0
213 1151 -1153 0
-1154 -370 210 -1153 0
-1154 -370 -210 1153 0
-1154 370 210 1153 0
-1154 370 -210 -1153 0
1154 370 -210 1153 0
1154 370 210 -1153 0
1154 -370 -210 -1153 0
1154 -370 210 1153 0
-1154 0
-210 1155 0
-1153 1155 0
210 1153 -1155 0
-1156 -368 207 -1155 0
-1156 -368 -207 1155 0
-1156 368 207 1155 0
-1156 368 -207 -1155 0
1156 368 -207 1155 0
1156 368 207 -1155 0
1156 -368 -207 -1155 0
1156 -368 207 1155 0
-1156 0
-207 1157 0
-1155 1157 0
207 1155 -1157 0
-1158 -366 204 -1157 0
-1158 -366 -204 1157 0
-1158 366 204 1157 0
-1158 366 -204 -1157 0
1158 366 -204 1157 0
1158 366 204 -1157 0
1158 -366 -204 -1157 0
1158 -366 204 1157 0
-1158 0
-204 1159 0
-1157 1159 0
204 1157 -1159 0
-1160 -364 201 -1159 0
-1160 -364 -201 1159 0
-1160 364 201 1159 0
-1160 364 -201 -1159 0
1160 364 -201 1159 0
1160 364 201 -1159 0
1160 -364 -201 -1159 0
1160 -364 201 1159 0
-1160 0
-201 1161 0
-1159 1161 0
201 1159 -1161 0
-1162 -362 198 -1161 0
-1162 -362 -198 1161 0
-1162 362 198 1161 0
-1162 362 -198 -1161 0
1162 362 -198 1161 0
1162 362 198 -1161 0
1162 -362 -198 -1161 0
1162 -362 198 1161 0
-1162 0
-198 1163 0
-1161 1163 0
198 1161 -1163 0
-1164 -360 195 -1163 0
-1164 -360 -195 1163 0
-1164 360 195 1163 0
-1164 360 -195 -1163 0
1164 360 -195 1163 0
1164 360 195 -1163 0
1164 -360 -195 -1163 0
1164 -360 195 1163 0
-1164 0
-195 1165 0
-1163 1165 0
195 1163 -1165 0
-1166 -358 192 -1165 0
-1166 -358 -192 1165 0
-1166 358 192 1165 0
-1166 358 -192 -1165 0
1166 358 -192 1165 0
1166 358 192 -1165 0
1166 -358 -192 -1165 0
1166 -358 192 1165 0
-1166 0
-192 1167 0
-1165 1167 0
192 1165 -1167 0
-1168 -356 189 -1167 0
-1168 -356 -189 1167 0
-1168 356 189 1167 0
-1168 356 -189 -1167 0
1168 356 -189 1167 0
1168 356 189 -1167 0
1168 -356 -189 -1167 0
1168 -356 189 1167 0
-1168 0
-189 1169 0
-1167 1169 0
189 1167 -1169 0
-1170 -354 186 -1169 0
-1170 -354 -186 1169 0
-1170 354 186 1169 0
-1170 354 -186 -1169 0
1170 354 -186 1169 0
1170 354 186 -1169 0
1170 -354 -186 -1169 0
1170 -354 186 1169 0
-1170 0
-186 1171 0
-1169 1171 0
186 1169 -1171 0
-1172 -352 183 -1171 0
-1172 -352 -183 1171 0
-1172 352 183 1171 0
-1172 352 -183 -1171 0
1172 352 -183 1171 0
1172 352 183 -1171 0
1172 -352 -183 -1171 0
1172 -352 183 1171 0
-1172 0
-183 1173 0
-1171 1173 0
183 1171 -1173 0
-1174 -350 180 -1173 0
-1174 -350 -180 1173 0
-1174 350 180 1173 0
-1174 350 -180 -1173 0
1174 350 -180 1173 0
1174 350 180 -1173 0
1174 -350 -180 -1173 0
1174 -350 180 1173 0
-1174 0
-180 1175 0
-1173 1175 0
180 1173 -1175 0
-1176 -348 177 -1175 0
-1176 -348 -177 1175 0
-1176 348 177 1175 0
-1176 348 -177 -1175 0
1176 348 -177 1175 0
1176 348 177 -1175 0
1176 -348 -177 -1175 0
1176 -348 177 1175 0
-1176 0
-177 1177 0
-1175 1177 0
177 1175 -1177 0
-1178 -346 174 -1177 0
-1178 -346 -174 1177 0
-1178 346 174 1177 0
-1178 346 -174 -1177 0
1178 346 -174 1177 0
1178 346 174 -1177 0
1178 -346 -174 -1177 0
1178 -346 174 1177 0
-1178 0
-174 1179 0
-1177 1179 0
174 1177 -1179 0
-1180 -344 171 -1179 0
-1180 -344 -171 1179 0
-1180 344 171 1179 0
-1180 344 -171 -1179 0
1180 344 -171 1179 0
1180 344 171 -1179 0
1180 -344 -171 -1179 0
1180 -344 171 1179 0
-1180 0
-171 1181 0
-1179 1181 0
171 1179 -1181 0
-1182 -342 168 -1181 0
-1182 -342 -168 1181 0
-1182 342 168 1181 0
-1182 342 -168 -1181 0
1182 342 -168 1181 0
1182 342 168 -1181 0
1182 -342 -168 -1181 0
1182 -342 168 1181 0
-1182 0
-168 1183 0
-1181 1183 0
168 1181 -1183 0
-1184 -340 165 -1183 0
-1184 -340 -165 1183 0
-1184 340 165 1183 0
-1184 340 -165 -1183 0
1184 340 -165 1183 0
1184 340 165 -1183 0
1184 -340 -165 -1183 0
1184 -340 165 1183 0
-1184 0
-165 1185 0
-1183 1185 0
165 1183 -1185 0
-1186 -338 162 -1185 0
-1186 -338 -162 1185 0
-1186 338 162 1185 0
-1186 338 -162 -1185 0
1186 338 -162 1185 0
1186 338 162 -1185 0
1186 -338 -162 -1185 0
1186 -338 162 1185 0
-1186 0
-162 1187 0
-1185 1187 0
162 1185 -1187 0
-1188 -336 159 -1187 0
-1188 -336 -159 1187 0
-1188 336 159 1187 0
-1188 336 -159 -1187 0
1188 336 -159 1187 0
1188 336 159 -1187 0
1188 -336 -159 -1187 0
1188 -336 159 1187 0
-1188 0
250 1189 0
321 1189 0
-250 -321 -1189 0
-1190 466 -1189 0
-1190 -466 1189 0
1190 -466 -1189 0
1190 466 1189 0
-1190 0
247 1191 0
319 1191 0
-247 -319 -1191 0
-1192 464 -1191 0
-1192 -464 1191 0
1192 -464 -1191 0
1192 464 1191 0
-1192 0
244 1193 0
317 1193 0
-244 -317 -1193 0
-1194 462 -1193 0
-1194 -462 1193 0
1194 -462 -1193 0
1194 462 1193 0
-1194 0
241 1195 0
315 1195 0
-241 -315 -1195 0
-1196 460 -1195 0
-1196 -460 1195 0
1196 -460 -1195 0
1196 460 1195 0
-1196 0
238 1197 0
313 1197 0
-238 -313 -1197 0
-1198 458 -1197 0
-1198 -458 1197 0
1198 -458 -1197 0
1198 458 1197 0
-1198 0
235 1199 0
311 1199 0
-235 -311 -1199 0
-1200 456 -1199 0
-1200 -456 1199 0
1200 -456 -1199 0
1200 456 1199 0
-1200 0
232 1201 0
309 1201 0
-232 -309 -1201 0
-1202 454 -1201 0
-1202 -454 1201 0
1202 -454 -1201 0
1202 454 1201 0
-1202 0
229 1203 0
307 1203 0
-229 -307 -1203 0
-1204 452 -1203 0
-1204 -452 1203 0
1204 -452 -1203 0
1204 452 1203 0
-1204 0
226 1205 0
305 1205 0
-226 -305 -1205 0
-1206 450 -1205 0
-1206 -450 1205 0
1206 -450 -1205 0
1206 450 1205 0
-1206 0
223 1207 0
303 1207 0
-223 -303 -1207 0
-1208 448 -1207 0
-1208 -448 1207 0
1208 -448 -1207 0
1208 448 1207 0
-1208 0
220 1209 0
301 1209 0
-220 -301 -1209 0
-1210 446 -1209 0
-1210 -446 1209 0
1210 -446 -1209 0
1210 446 1209 0
-1210 0
217 1211 0
299 1211 0
-217 -299 -1211 0
-1212 444 -1211 0
-1212 -444 1211 0
1212 -444 -1211 0
1212 444 1211 0
-1212 0
214 1213 0
297 1213 0
-214 -297 -1213 0
-1214 442 -1213 0
-1214 -442 1213 0
1214 -442 -1213 0
1214 442 1213 0
-1214 0
211 1215 0
295 1215 0
-211 -295 -1215 0
-1216 440 -1215 0
-1216 -440 1215 0
1216 -440 -1215 0
1216 440 1215 0
-1216 0
208 1217 0
293 1217 0
-208 -293 -1217 0
-1218 438 -1217 0
-1218 -438 1217 0
1218 -438 -1217 0
1218 438 1217 0
-1218 0
205 1219 0
291 1219 0
-205 -291 -1219 0
-1220 436 -1219 0
-1220 -436 1219 0
1220 -436 -1219 0
1220 436 1219 0
-1220 0
202 1221 0
289 1221 0
-202 -289 -1221 0
-1222 434 -1221 0
-1222 -434 1221 0
1222 -434 -1221 0
1222 434 1221 0
-1222 0
199 1223 0
287 1223 0
-199 -287 -1223 0
-1224 432 -1223 0
-1224 -432 1223 0
1224 -432 -1223 0
1224 432 1223 0
-1224 0
196 1225 0
285 1225 0
-196 -285 -1225 0
-1226 430 -1225 0
-1226 -430 1225 0
1226 -430 -1225 0
1226 430 1225 0
-1226 0
193 1227 0
283 1227 0
-193 -283 -1227 0
-1228 428 -1227 0
-1228 -428 1227 0
1228 -428 -1227 0
1228 428 1227 0
-1228 0
190 1229 0
281 1229 0
-190 -281 -1229 0
-1230 426 -1229 0
-1230 -426 1229 0
1230 -426 -1229 0
1230 426 1229 0
-1230 0
187 1231 0
279 1231 0
-187 -279 -1231 0
-1232 424 -1231 0
-1232 -424 1231 0
1232 -424 -1231 0
1232 424 1231 0
-1232 0
184 1233 0
277 1233 0
-184 -277 -1233 0
-1234 422 -1233 0
-1234 -422 1233 0
1234 -422 -1233 0
1234 422 1233 0
-1234 0
181 1235 0
275 1235 0
-181 -275 -1235 0
-1236 420 -1235 0
-1236 -420 1235 0
1236 -420 -1235 0
1236 420 1235 0
-1236 0
178 1237 0
273 1237 0
-178 -273 -1237 0
-1238 418 -1237 0
-1238 -418 1237 0
1238 -418 -1237 0
1238 418 1237 0
-1238 0
175 1239 0
271 1239 0
-175 -271 -1239 0
-1240 416 -1239 0
-1240 -416 1239 0
1240 -416 -1239 0
1240 416 1239 0
-1240 0
172 1241 0
269 1241 0
-172 -269 -1241 0
-1242 414 -1241 0
-1242 -414 1241 0
1242 -414 -1241 0
1242 414 1241 0
-1242 0
169 1243 0
267 1243 0
-169 -267 -1243 0
-1244 412 -1243 0
-1244 -412 1243 0
1244 -412 -1243 0
1244 412 1243 0
-1244 0
166 1245 0
265 1245 0
-166 -265 -1245 0
-1246 410 -1245 0
-1246 -410 1245 0
1246 -410 -1245 0
1246 410 1245 0
-1246 0
163 1247 0
263 1247 0
-163 -263 -1247 0
-1248 408 -1247 0
-1248 -408 1247 0
1248 -408 -1247 0
1248 408 1247 0
-1248 0
160 1249 0
261 1249 0
-160 -261 -1249 0
-1250 406 -1249 0
-1250 -406 1249 0
1250 -406 -1249 0
1250 406 1249 0
-1250 0
-1251 -536 -148 0
-1251 536 148 0
1251 536 -148 0
1251 -536 148 0
-1251 0
-1252 -534 -145 0
-1252 534 145 0
1252 534 -145 0
1252 -534 145 0
-1252 0
-1253 -532 -142 0
-1253 532 142 0
1253 532 -142 0
1253 -532 142 0
-1253 0
-1254 -530 -139 0
-1254 530 139 0
1254 530 -139 0
1254 -530 139 0
-1254 0
-1255 -528 -136 0
-1255 528 136 0
1255 528 -136 0
1255 -528 136 0
-1255 0
-1256 -526 -133 0
-1256 526 133 0
1256 526 -133 0
1256 -526 133 0
-1256 0
-1257 -524 -130 0
-1257 524 130 0
1257 524 -130 0
1257 -524 130 0
-1257 0
-1258 -522 -127 0
-1258 522 127 0
1258 522 -127 0
1258 -522 127 0
-1258 0
-1259 -520 -124 0
-1259 520 124 0
1259 520 -124 0
1259 -520 124 0
-1259 0
-1260 -518 -121 0
-1260 518 121 0
1260 518 -121 0
1260 -518 121 0
-1260 0
-1261 -516 -118 0
-1261 516 118 0
1261 516 -118 0
1261 -516 118 0
-1261 0
-1262 -514 -115 0
-1262 514 115 0
1262 514 -115 0
1262 -514 115 0
-1262 0
-1263 -512 -112 0
-1263 512 112 0
1263 512 -112 0
1263 -512 112 0
-1263 0
-1264 -510 -109 0
-1264 510 109 0
1264 510 -109 0
1264 -510 109 0
-1264 0
-1265 -508 -106 0
-1265 508 106 0
1265 508 -106 0
1265 -508 106 0
-1265 0
-1266 -506 -103 0
-1266 506 103 0
1266 506 -103 0
1266 -506 103 0
-1266 0
-1267 -504 -100 0
-1267 504 100 0
1267 504 -100 0
1267 -504 100 0
-1267 0
-1268 -502 -97 0
-1268 502 97 0
1268 502 -97 0
1268 -502 97 0
-1268 0
-1269 -500 -94 0
-1269 500 94 0
1269 500 -94 0
1269 -500 94 0
-1269 0
-1270 -498 -91 0
-1270 498 91 0
1270 498 -91 0
1270 -498 91 0
-1270 0
-1271 -496 -88 0
-1271 496 88 0
1271 496 -88 0
1271 -496 88 0
-1271 0
-1272 -494 -85 0
-1272 494 85 0
1272 494 -85 0
1272 -494 85 0
-1272 0
-1273 -492 -82 0
-1273 492 82 0
1273 492 -82 0
1273 -492 82 0
-1273 0
-1274 -490 -79 0
-1274 490 79 0
1274 490 -79 0
1274 -490 79 0
-1274 0
-1275 -488 -76 0
-1275 488 76 0
1275 488 -76 0
1275 -488 76 0
-1275 0
-1276 -486 -73 0
-1276 486 73 0
1276 486 -73 0
1276 -486 73 0
-1276 0
-1277 -484 -70 0
-1277 484 70 0
1277 484 -70 0
1277 -484 70 0
-1277 0
-1278 -482 -67 0
-1278 482 67 0
1278 482 -67 0
1278 -482 67 0
-1278 0
-1279 -480 -64 0
-1279 480 64 0
1279 480 -64 0
1279 -480 64 0
-1279 0
-1280 -478 -61 0
-1280 478 61 0
1280 478 -61 0
1280 -478 61 0
-1280 0
-1281 -476 -58 0
-1281 476 58 0
1281 476 -58 0
1281 -476 58 0
-1281 0
-1282 -149 -1283 0
-1282 149 1283 0
1282 149 -1283 0
1282 -149 1283 0
-1282 0
-1284 -146 -1285 0
-1284 146 1285 0
1284 146 -1285 0
1284 -146 1285 0
-1284 0
-1286 -143 -1287 0
-1286 143 1287 0
1286 143 -1287 0
1286 -143 1287 0
-1286 0
-1288 -140 -1289 0
-1288 140 1289 0
1288 140 -1289 0
1288 -140 1289 0
-1288 0
-1290 -137 -1291 0
-1290 137 1291 0
1290 137 -1291 0
1290 -137 1291 0
-1290 0
-1292 -134 -1293 0
-1292 134 1293 0
1292 134 -1293 0
1292 -134 1293 0
-1292 0
-1294 -131 -1295 0
-1294 131 1295 0
1294 131 -1295 0
1294 -131 1295 0
-1294 0
-1296 -128 -1297 0
-1296 128 1297 0
1296 128 -1297 0
1296 -128 1297 0
-1296 0
-1298 -125 -1299 0
-1298 125 1299 0
1298 125 -1299 0
1298 -125 1299 0
-1298 0
-1300 -122 -1301 0
-1300 122 1301 0
1300 122 -1301 0
1300 -122 1301 0
-1300 0
-1302 -119 -1303 0
-1302 119 1303 0
1302 119 -1303 0
1302 -119 1303 0
-1302 0
-1304 -116 -1305 0
-1304 116 1305 0
1304 116 -1305 0
1304 -116 1305 0
-1304 0
-1306 -113 -1307 0
-1306 113 1307 0
1306 113 -1307 0
1306 -113 1307 0
-1306 0
-1308 -110 -1309 0
-1308 110 1309 0
1308 110 -1309 0
1308 -110 1309 0
-1308 0
-1310 -107 -1311 0
-1310 107 1311 0
1310 107 -1311 0
1310 -107 1311 0
-1310 0
-1312 -104 -1313 0
-1312 104 1313 0
1312 104 -1313 0
1312 -104 1313 0
-1312 0
-1314 -101 -1315 0
-1314 101 1315 0
1314 101 -1315 0
1314 -101 1315 0
-1314 0
-1316 -98 -1317 0
-1316 98 1317 0
1316 98 -1317 0
1316 -98 1317 0
-1316 0
-1318 -95 -1319 0
-1318 95 1319 0
1318 95 -1319 0
1318 -95 1319 0
-1318 0
-1320 -92 -1321 0
-1320 92 1321 0
1320 92 -1321 0
1320 -92 1321 0
-1320 0
-1322 -89 -1323 0
-1322 89 1323 0
1322 89 -1323 0
1322 -89 1323 0
-1322 0
-1324 -86 -1325 0
-1324 86 1325 0
1324 86 -1325 0
1324 -86 1325 0
-1324 0
-1326 -83 -1327 0
-1326 83 1327 0
1326 83 -1327 0
1326 -83 1327 0
-1326 0
-1328 -80 -1329 0
-1328 80 1329 0
1328 80 -1329 0
1328 -80 1329 0
-1328 0
-1330 -77 -1331 0
-1330 77 1331 0
1330 77 -1331 0
1330 -77 1331 0
-1330 0
-1332 -74 -1333 0
-1332 74 1333 0
1332 74 -1333 0
1332 -74 1333 0
-1332 0
-1334 -71 -1335 0
-1334 71 1335 0
1334 71 -1335 0
1334 -71 1335 0
-1334 0
-1336 -68 -1337 0
-1336 68 1337 0
1336 68 -1337 0
1336 -68 1337 0
-1336 0
-1338 -65 -1339 0
-1338 65 1339 0
1338 65 -1339 0
1338 -65 1339 0
-1338 0
-1340 -62 -1341 0
-1340 62 1341 0
1340 62 -1341 0
1340 -62 1341 0
-1340 0
-1342 -59 -1343 0
-1342 59 1343 0
1342 59 -1343 0
1342 -59 1343 0
-1342 0
-1344 1283 -1074 0
-1344 -1283 1074 0
1344 -1283 -1074 0
1344 1283 1074 0
1283 1345 0
-1344 1345 0
-1283 1344 -1345 0
-1346 1345 -996 0
-1346 -1345 996 0
1346 -1345 -996 0
1346 1345 996 0
-1346 0
-1283 1347 0
-1074 1347 0
1283 1074 -1347 0
-1348 1285 -1347 0
-1348 -1285 1347 0
1348 -1285 -1347 0
1348 1285 1347 0
1285 1349 0
-1348 1349 0
-1285 1348 -1349 0
-1350 1349 -994 0
-1350 -1349 994 0
1350 -1349 -994 0
1350 1349 994 0
-1350 0
-1285 1351 0
-1347 1351 0
1285 1347 -1351 0
-1352 1287 -1351 0
-1352 -1287 1351 0
1352 -1287 -1351 0
1352 1287 1351 0
1287 1353 0
-1352 1353 0
-1287 1352 -1353 0
-1354 1353 -992 0
-1354 -1353 992 0
1354 -1353 -992 0
1354 1353 992 0
-1354 0
-1287 1355 0
-1351 1355 0
1287 1351 -1355 0
-1356 1289 -1355 0
-1356 -1289 1355 0
1356 -1289 -1355 0
1356 1289 1355 0
1289 1357 0
-1356 1357 0
-1289 1356 -1357 0
-1358 1357 -990 0
-1358 -1357 990 0
1358 -1357 -990 0
1358 1357 990 0
-1358 0
-1289 1359 0
-1355 1359 0
1289 1355 -1359 0
-1360 1291 -1359 0
-1360 -1291 1359 0
1360 -1291 -1359 0
1360 1291 1359 0
1291 1361 0
-1360 1361 0
-1291 1360 -1361 0
-1362 1361 -988 0
-1362 -1361 988 0
1362 -1361 -988 0
1362 1361 988 0
-1362 0
-1291 1363 0
-1359 1363 0
1291 1359 -1363 0
-1364 1293 -1363 0
-1364 -1293 1363 0
1364 -1293 -1363 0
1364 1293 1363 0
1293 1365 0
-1364 1365 0
-1293 1364 -1365 0
-1366 1365 -986 0
-1366 -1365 986 0
1366 -1365 -986 0
1366 1365 986 0
-1366 0
-1293 1367 0
-1363 1367 0
1293 1363 -1367 0
-1368 1295 -1367 0
-1368 -1295 1367 0
1368 -1295 -1367 0
1368 1295 1367 0
1295 1369 0
-1368 1369 0
-1295 1368 -1369 0
-1370 1369 -984 0
-1370 -1369 984 0
1370 -1369 -984 0
1370 1369 984 0
-1370 0
-1295 1371 0
-1367 1371 0
1295 1367 -1371 0
-1372 1297 -1371 0
-1372 -1297 1371 0
1372 -1297 -1371 0
1372 1297 1371 0
1297 1373 0
-1372 1373 0
-1297 1372 -1373 0
-1374 1373 -982 0
-1374 -1373 982 0
1374 -1373 -982 0
1374 1373 982 0
-1374 0
-1297 1375 0
-1371 1375 0
1297 1371 -1375 0
-1376 1299 -1375 0
-1376 -1299 1375 0
1376 -1299 -1375 0
1376 1299 1375 0
1299 1377 0
-1376 1377 0
-1299 1376 -1377 0
-1378 1377 -980 0
-1378 -1377 980 0
1378 -1377 -980 0
1378 1377 980 0
-1378 0
-1299 1379 0
-1375 1379 0
1299 1375 -1379 0
-1380 1301 -1379 0
-1380 -1301 1379 0
1380 -1301 -1379 0
1380 1301 1379 0
1301 1381 0
-1380 1381 0
-1301 1380 -1381 0
-1382 1381 -978 0
-1382 -1381 978 0
1382 -1381 -978 0
1382 1381 978 0
-1382 0
-1301 1383 0
-1379 1383 0
1301 1379 -1383 0
-1384 1303 -1383 0
-1384 -1303 1383 0
1384 -1303 -1383 0
1384 1303 1383 0
1303 1385 0
-1384 1385 0
-1303 1384 -1385 0
-1386 1385 -976 0
-1386 -1385 976 0
1386 -1385 -976 0
1386 1385 976 0
-1386 0
-1303 1387 0
-1383 1387 0
1303 1383 -1387 0
-1388 1305 -1387 0
-1388 -1305 1387 0
1388 -1305 -1387 0
1388 1305 1387 0
1305 1389 0
-1388 1389 0
-1305 1388 -1389 0
-1390 1389 -974 0
-1390 -1389 974 0
1390 -1389 -974 0
1390 1389 974 0
-1390 0
-1305 1391 0
-1387 1391 0
1305 1387 -1391 0
-1392 1307 -1391 0
-1392 -1307 1391 0
1392 -1307 -1391 0
1392 1307 1391 0
1307 1393 0
-1392 1393 0
-1307 1392 -1393 0
-1394 1393 -972 0
-1394 -1393 972 0
1394 -1393 -972 0
1394 1393 972 0
-1394 0
-1307 1395 0
-1391 1395 0
1307 1391 -1395 0
-1396 1309 -1395 0
-1396 -1309 1395 0
1396 -1309 -1395 0
1396 1309 1395 0
1309 1397 0
-1396 1397 0
-1309 1396 -1397 0
-1398 1397 -970 0
-1398 -1397 970 0
1398 -1397 -970 0
1398 1397 970 0
-1398 0
-1309 1399 0
-1395 1399 0
1309 1395 -1399 0
-1400 1311 -1399 0
-1400 -1311 1399 0
1400 -1311 -1399 0
1400 1311 1399 0
1311 1401 0
-1400 1401 0
-1311 1400 -1401 0
-1402 1401 -968 0
-1402 -1401 968 0
1402 -1401 -968 0
1402 1401 968 0
-1402 0
-1311 1403 0
-1399 1403 0
1311 1399 -1403 0
-1404 1313 -1403 0
-1404 -1313 1403 0
1404 -1313 -1403 0
1404 1313 1403 0
1313 1405 0
-1404 1405 0
-1313 1404 -1405 0
-1406 1405 -966 0
-1406 -1405 966 0
1406 -1405 -966 0
1406 1405 966 0
-1406 0
-1313 1407 0
-1403 1407 0
1313 1403 -1407 0
-1408 1315 -1407 0
-1408 -1315 1407 0
1408 -1315 -1407 0
1408 1315 1407 0
1315 1409 0
-1408 1409 0
-1315 1408 -1409 0
-1410 1409 -964 0
-1410 -1409 964 0
1410 -1409 -964 0
1410 1409 964 0
-1410 0
-1315 1411 0
-1407 1411 0
1315 1407 -1411 0
-1412 1317 -1411 0
-1412 -1317 1411 0
1412 -1317 -1411 0
1412 1317 1411 0
1317 1413 0
-1412 1413 0
-1317 1412 -1413 0
-1414 1413 -962 0
-1414 -1413 962 0
1414 -1413 -962 0
1414 1413 962 0
-1414 0
-1317 1415 0
-1411 1415 0
1317 1411 -1415 0
-1416 1319 -1415 0
-1416 -1319 1415 0
1416 -1319 -1415 0
1416 1319 1415 0
1319 1417 0
-1416 1417 0
-1319 1416 -1417 0
-1418 1417 -960 0
-1418 -1417 960 0
1418 -1417 -960 0
1418 1417 960 0
-1418 0
-1319 1419 0
-1415 1419 0
1319 1415 -1419 0
-1420 1321 -1419 0
-1420 -1321 1419 0
1420 -1321 -1419 0
1420 1321 1419 0
1321 1421 0
-1420 1421 0
-1321 1420 -1421 0
-1422 1421 -958 0
-1422 -1421 958 0
1422 -1421 -958 0
1422 1421 958 0
-1422 0
-1321 1423 0
-1419 1423 0
1321 1419 -1423 0
-1424 1323 -1423 0
-1424 -1323 1423 0
1424 -1323 -1423 0
1424 1323 1423 0
1323 1425 0
-1424 1425 0
-1323 1424 -1425 0
-1426 1425 -956 0
-1426 -1425 956 0
1426 -1425 -956 0
1426 1425 956 0
-1426 0
-1323 1427 0
-1423 1427 0
1323 1423 -1427 0
-1428 1325 -1427 0
-1428 -1325 1427 0
1428 -1325 -1427 0
1428 1325 1427 0
1325 1429 0
-1428 1429 0
-1325 1428 -1429 0
-1430 1429 -954 0
-1430 -1429 954 0
1430 -1429 -954 0
1430 1429 954 0
-1430 0
-1325 1431 0
-1427 1431 0
1325 1427 -1431 0
-1432 1327 -1431 0
-1432 -1327 1431 0
1432 -1327 -1431 0
1432 1327 1431 0
1327 1433 0
-1432 1433 0
-1327 1432 -1433 0
-1434 1433 -952 0
-1434 -1433 952 0
1434 -1433 -952 0
1434 1433 952 0
-1434 0
-1327 1435 0
-1431 1435 0
1327 1431 -1435 0
-1436 1329 -1435 0
-1436 -1329 1435 0
1436 -1329 -1435 0
1436 1329 1435 0
1329 1437 0
-1436 1437 0
-1329 1436 -1437 0
-1438 1437 -950 0
-1438 -1437 950 0
1438 -1437 -950 0
1438 1437 950 0
-1438 0
-1329 1439 0
-1435 1439 0
1329 1435 -1439 0
-1440 1331 -1439 0
-1440 -1331 1439 0
1440 -1331 -1439 0
1440 1331 1439 0
1331 1441 0
-1440 1441 0
-1331 1440 -1441 0
-1442 1441 -948 0
-1442 -1441 948 0
1442 -1441 -948 0
1442 1441 948 0
-1442 0
-1331 1443 0
-1439 1443 0
1331 1439 -1443 0
-1444 1333 -1443 0
-1444 -1333 1443 0
1444 -1333 -1443 0
1444 1333 1443 0
1333 1445 0
-1444 1445 0
-1333 1444 -1445 0
-1446 1445 -946 0
-1446 -1445 946 0
1446 -1445 -946 0
1446 1445 946 0
-1446 0
-1333 1447 0
-1443 1447 0
1333 1443 -1447 0
-1448 1335 -1447 0
-1448 -1335 1447 0
1448 -1335 -1447 0
1448 1335 1447 0
1335 1449 0
-1448 1449 0
-1335 1448 -1449 0
-1450 1449 -944 0
-1450 -1449 944 0
1450 -1449 -944 0
1450 1449 944 0
-1450 0
-1335 1451 0
-1447 1451 0
1335 1447 -1451 0
-1452 1337 -1451 0
-1452 -1337 1451 0
1452 -1337 -1451 0
1452 1337 1451 0
1337 1453 0
-1452 1453 0
-1337 1452 -1453 0
-1454 1453 -942 0
-1454 -1453 942 0
1454 -1453 -942 0
1454 1453 942 0
-1454 0
-1337 1455 0
-1451 1455 0
1337 1451 -1455 0
-1456 1339 -1455 0
-1456 -1339 1455 0
1456 -1339 -1455 0
1456 1339 1455 0
1339 1457 0
-1456 1457 0
-1339 1456 -1457 0
-1458 1457 -940 0
-1458 -1457 940 0
1458 -1457 -940 0
1458 1457 940 0
-1458 0
-1339 1459 0
-1455 1459 0
1339 1455 -1459 0
-1460 1341 -1459 0
-1460 -1341 1459 0
1460 -1341 -1459 0
1460 1341 1459 0
1341 1461 0
-1460 1461 0
-1341 1460 -1461 0
-1462 1461 -938 0
-1462 -1461 938 0
1462 -1461 -938 0
1462 1461 938 0
-1462 0
-1341 1463 0
-1459 1463 0
1341 1459 -1463 0
-1464 1343 -1463 0
-1464 -1343 1463 0
1464 -1343 -1463 0
1464 1343 1463 0
1343 1465 0
-1464 1465 0
-1343 1464 -1465 0
-1466 1465 -936 0
-1466 -1465 936 0
1466 -1465 -936 0
1466 1465 936 0
-1466 0
1132 0
-507 0
1231 0
