p cnf 8 64
-4 -5 -7 -8 0
2 -5 0
-1 2 -4 -7 0
2 -5 -7 8 0
-6 8 0
2 3 6 0
2 -5 0
-2 5 7 0
-2 -5 0
-4 -5 -7 -8 0
-3 6 -7 0
3 4 5 0
4 0
1 2 -4 0
3 4 5 0
-6 0
4 -5 -6 0
7 0
-1 -2 -6 -7 0
-1 4 6 8 0
-2 5 7 0
-6 8 0
-1 3 4 -8 0
-1 4 -5 -8 0
-2 4 6 0
2 -5 -7 8 0
-1 -2 -6 -7 0
-2 -5 0
4 0
1 0
-2 -4 -5 8 0
8 0
-2 4 6 0
2 -5 -7 8 0
-3 -4 5 7 0
4 0
1 2 -4 0
-2 4 6 0
-3 4 0
1 2 -4 0
-2 -4 -5 8 0
-2 -4 -5 8 0
-3 6 -7 0
7 0
2 0
-1 -5 -8 0
-1 2 -4 -7 0
-6 0
-2 -3 5 -8 0
1 4 5 0
-3 6 -7 0
-1 -6 0
1 -4 -5 6 0
-3 6 -7 0
4 0
4 -5 -6 0
7 0
2 -5 0
-1 3 4 -8 0
-2 -5 0
7 0
-1 4 6 8 0
-1 -2 -6 -7 0
-4 7 0
