p cnf 12 96
-3 -8 10 11 0
11 0
-4 11 0
1 2 -7 11 0
1 5 11 0
1 5 11 0
11 0
-8 -12 0
3 -10 0
-3 -8 10 11 0
1 2 -7 11 0
1 3 5 11 0
-4 11 0
-3 -8 10 11 0
1 3 5 11 0
11 0
2 -5 -9 -10 0
1 3 5 11 0
1 2 -7 11 0
3 -10 0
-4 11 0
1 5 11 0
-8 -12 0
4 0
1 2 -7 11 0
11 0
3 -10 0
1 3 5 11 0
-8 -12 0
3 -10 0
1 3 5 11 0
3 -10 0
-4 11 0
-3 -8 10 11 0
1 5 11 0
4 0
4 0
-4 11 0
-4 11 0
3 -10 0
1 3 5 11 0
1 5 11 0
4 0
1 3 5 11 0
1 2 -7 11 0
3 -10 0
3 -10 0
11 0
4 0
1 2 -7 11 0
3 -10 0
1 5 11 0
1 3 5 11 0
1 2 -7 11 0
1 2 -7 11 0
-4 11 0
4 0
1 2 -7 11 0
1 5 11 0
1 2 -7 11 0
11 0
1 3 5 11 0
11 0
1 5 11 0
1 5 11 0
11 0
-8 -12 0
-4 11 0
4 0
-8 -12 0
-3 -8 10 11 0
-8 -12 0
11 0
-4 11 0
-8 -12 0
4 0
4 0
4 0
1 5 11 0
4 0
4 0
1 2 -7 11 0
3 -10 0
2 -5 -9 -10 0
1 2 -7 11 0
4 0
-3 -8 10 11 0
1 2 -7 11 0
11 0
11 0
2 -5 -9 -10 0
-8 -12 0
4 0
3 -10 0
-8 -12 0
4 0
