p cnf 16 275
-9 0
-7 0
-9 -7 0
-6 0
4 0
2 0
-5 0
-11 0
-11 0
-3 0
-10 0
-8 0
-12 0
-13 0
-8 -10 0
-12 -10 0
-10 -13 0
-12 -8 0
-8 -13 0
-12 -13 0
-14 0
-15 0
-16 0
-14 -15 0
-14 -16 0
-15 -16 0
-1 0
-1 0
2 0
4 0
-1 3 0
-1 12 8 10 13 -3 0
-1 8 10 13 -3 0
-1 8 15 10 13 -3 0
-1 12 8 10 13 -3 0
-1 8 10 13 -3 0
-1 8 15 10 13 -3 0
-1 12 8 10 13 16 -3 0
-1 8 10 13 16 -3 0
-1 8 15 10 13 16 -3 0
-1 12 10 13 -3 0
-1 10 13 -3 0
-1 15 10 13 -3 0
-1 12 10 13 -3 0
-1 10 13 -3 0
-1 15 10 13 -3 0
-1 12 10 13 16 -3 0
-1 10 13 16 -3 0
-1 15 10 13 16 -3 0
-1 12 10 13 -3 0
-1 10 13 -3 0
-1 15 10 13 -3 0
-1 12 10 13 -3 0
-1 10 13 -3 0
-1 15 10 13 -3 0
-1 12 10 13 16 -3 0
-1 10 13 16 -3 0
-1 15 10 13 16 -3 0
-1 12 8 13 -3 0
-1 8 13 -3 0
-1 8 15 13 -3 0
-1 12 8 13 -3 0
-1 8 13 -3 0
-1 8 15 13 -3 0
-1 12 8 13 16 -3 0
-1 8 13 16 -3 0
-1 8 15 13 16 -3 0
-1 12 13 -3 0
-1 13 -3 0
-1 15 13 -3 0
-1 12 13 -3 0
-1 13 -3 0
-1 15 13 -3 0
-1 12 13 16 -3 0
-1 13 16 -3 0
-1 15 13 16 -3 0
-1 12 13 -3 0
-1 13 -3 0
-1 15 13 -3 0
-1 12 13 -3 0
-1 13 -3 0
-1 15 13 -3 0
-1 12 13 16 -3 0
-1 13 16 -3 0
-1 15 13 16 -3 0
-1 12 8 13 -3 0
-1 8 13 -3 0
-1 8 15 13 -3 0
-1 12 8 13 -3 0
-1 8 13 -3 0
-1 8 15 13 -3 0
-1 12 8 13 16 -3 0
-1 8 13 16 -3 0
-1 8 15 13 16 -3 0
-1 12 13 -3 0
-1 13 -3 0
-1 15 13 -3 0
-1 12 13 -3 0
-1 13 -3 0
-1 15 13 -3 0
-1 12 13 16 -3 0
-1 13 16 -3 0
-1 15 13 16 -3 0
-1 12 13 -3 0
-1 13 -3 0
-1 15 13 -3 0
-1 12 13 -3 0
-1 13 -3 0
-1 15 13 -3 0
-1 12 13 16 -3 0
-1 13 16 -3 0
-1 15 13 16 -3 0
-1 12 8 10 -3 0
-1 12 8 14 10 -3 0
-1 8 10 -3 0
-1 8 14 10 -3 0
-1 8 15 10 -3 0
-1 8 14 15 10 -3 0
-1 12 8 10 -3 0
-1 12 8 14 10 -3 0
-1 8 10 -3 0
-1 8 14 10 -3 0
-1 8 15 10 -3 0
-1 8 14 15 10 -3 0
-1 12 8 10 16 -3 0
-1 12 8 14 10 16 -3 0
-1 8 10 16 -3 0
-1 8 14 10 16 -3 0
-1 8 15 10 16 -3 0
-1 8 14 15 10 16 -3 0
-1 12 10 -3 0
-1 12 14 10 -3 0
-1 10 -3 0
-1 14 10 -3 0
-1 15 10 -3 0
-1 14 15 10 -3 0
-1 12 10 -3 0
-1 12 14 10 -3 0
-1 10 -3 0
-1 14 10 -3 0
-1 15 10 -3 0
-1 14 15 10 -3 0
-1 12 10 16 -3 0
-1 12 14 10 16 -3 0
-1 10 16 -3 0
-1 14 10 16 -3 0
-1 15 10 16 -3 0
-1 14 15 10 16 -3 0
-1 12 10 -3 0
-1 12 14 10 -3 0
-1 10 -3 0
-1 14 10 -3 0
-1 15 10 -3 0
-1 14 15 10 -3 0
-1 12 10 -3 0
-1 12 14 10 -3 0
-1 10 -3 0
-1 14 10 -3 0
-1 15 10 -3 0
-1 14 15 10 -3 0
-1 12 10 16 -3 0
-1 12 14 10 16 -3 0
-1 10 16 -3 0
-1 14 10 16 -3 0
-1 15 10 16 -3 0
-1 14 15 10 16 -3 0
-1 12 8 -3 0
-1 12 8 14 -3 0
-1 8 -3 0
-1 8 14 -3 0
-1 8 15 -3 0
-1 8 14 15 -3 0
-1 12 8 -3 0
-1 12 8 14 -3 0
-1 8 -3 0
-1 8 14 -3 0
-1 8 15 -3 0
-1 8 14 15 -3 0
-1 12 8 16 -3 0
-1 12 8 14 16 -3 0
-1 8 16 -3 0
-1 8 14 16 -3 0
-1 8 15 16 -3 0
-1 8 14 15 16 -3 0
-1 12 -3 0
-1 12 14 -3 0
-1 -3 0
-1 14 -3 0
-1 15 -3 0
-1 14 15 -3 0
-1 12 -3 0
-1 12 14 -3 0
-1 -3 0
-1 14 -3 0
-1 15 -3 0
-1 14 15 -3 0
-1 12 16 -3 0
-1 12 14 16 -3 0
-1 16 -3 0
-1 14 16 -3 0
-1 15 16 -3 0
-1 14 15 16 -3 0
-1 12 -3 0
-1 12 14 -3 0
-1 -3 0
-1 14 -3 0
-1 15 -3 0
-1 14 15 -3 0
-1 12 -3 0
-1 12 14 -3 0
-1 -3 0
-1 14 -3 0
-1 15 -3 0
-1 14 15 -3 0
-1 12 16 -3 0
-1 12 14 16 -3 0
-1 16 -3 0
-1 14 16 -3 0
-1 15 16 -3 0
-1 14 15 16 -3 0
-1 12 8 -3 0
-1 12 8 14 -3 0
-1 8 -3 0
-1 8 14 -3 0
-1 8 15 -3 0
-1 8 14 15 -3 0
-1 12 8 -3 0
-1 12 8 14 -3 0
-1 8 -3 0
-1 8 14 -3 0
-1 8 15 -3 0
-1 8 14 15 -3 0
-1 12 8 16 -3 0
-1 12 8 14 16 -3 0
-1 8 16 -3 0
-1 8 14 16 -3 0
-1 8 15 16 -3 0
-1 8 14 15 16 -3 0
-1 12 -3 0
-1 12 14 -3 0
-1 -3 0
-1 14 -3 0
-1 15 -3 0
-1 14 15 -3 0
-1 12 -3 0
-1 12 14 -3 0
-1 -3 0
-1 14 -3 0
-1 15 -3 0
-1 14 15 -3 0
-1 12 16 -3 0
-1 12 14 16 -3 0
-1 16 -3 0
-1 14 16 -3 0
-1 15 16 -3 0
-1 14 15 16 -3 0
-1 12 -3 0
-1 12 14 -3 0
-1 -3 0
-1 14 -3 0
-1 15 -3 0
-1 14 15 -3 0
-1 12 -3 0
-1 12 14 -3 0
-1 -3 0
-1 14 -3 0
-1 15 -3 0
-1 14 15 -3 0
-1 12 16 -3 0
-1 12 14 16 -3 0
-1 16 -3 0
-1 14 16 -3 0
-1 15 16 -3 0
-1 14 15 16 -3 0
-1 -3 0
