p cnf 16 274
-5 0
-10 0
-8 0
-10 -8 0
-7 0
4 0
2 0
-6 0
-12 0
-12 0
-3 0
-11 0
-9 0
-13 0
-14 0
-9 -11 0
-13 -11 0
-11 -14 0
-13 -9 0
-9 -14 0
-13 -14 0
-15 0
-16 0
-15 -16 0
-1 0
-1 0
-6 0
2 0
4 0
-1 3 0
-1 -3 13 9 11 14 0
-1 -3 9 11 14 0
-1 -3 9 16 11 14 0
-1 -3 13 9 11 14 0
-1 -3 9 11 14 0
-1 -3 9 16 11 14 0
-1 -3 13 9 11 14 0
-1 -3 9 11 14 0
-1 -3 9 16 11 14 0
-1 -3 13 11 14 0
-1 -3 11 14 0
-1 -3 16 11 14 0
-1 -3 13 11 14 0
-1 -3 11 14 0
-1 -3 16 11 14 0
-1 -3 13 11 14 0
-1 -3 11 14 0
-1 -3 16 11 14 0
-1 -3 13 11 14 0
-1 -3 11 14 0
-1 -3 16 11 14 0
-1 -3 13 11 14 0
-1 -3 11 14 0
-1 -3 16 11 14 0
-1 -3 13 11 14 0
-1 -3 11 14 0
-1 -3 16 11 14 0
-1 -3 13 9 14 0
-1 -3 9 14 0
-1 -3 9 16 14 0
-1 -3 13 9 14 0
-1 -3 9 14 0
-1 -3 9 16 14 0
-1 -3 13 9 14 0
-1 -3 9 14 0
-1 -3 9 16 14 0
-1 -3 13 14 0
-1 -3 14 0
-1 -3 16 14 0
-1 -3 13 14 0
-1 -3 14 0
-1 -3 16 14 0
-1 -3 13 14 0
-1 -3 14 0
-1 -3 16 14 0
-1 -3 13 14 0
-1 -3 14 0
-1 -3 16 14 0
-1 -3 13 14 0
-1 -3 14 0
-1 -3 16 14 0
-1 -3 13 14 0
-1 -3 14 0
-1 -3 16 14 0
-1 -3 13 9 14 0
-1 -3 9 14 0
-1 -3 9 16 14 0
-1 -3 13 9 14 0
-1 -3 9 14 0
-1 -3 9 16 14 0
-1 -3 13 9 14 0
-1 -3 9 14 0
-1 -3 9 16 14 0
-1 -3 13 14 0
-1 -3 14 0
-1 -3 16 14 0
-1 -3 13 14 0
-1 -3 14 0
-1 -3 16 14 0
-1 -3 13 14 0
-1 -3 14 0
-1 -3 16 14 0
-1 -3 13 14 0
-1 -3 14 0
-1 -3 16 14 0
-1 -3 13 14 0
-1 -3 14 0
-1 -3 16 14 0
-1 -3 13 14 0
-1 -3 14 0
-1 -3 16 14 0
-1 -3 13 9 11 0
-1 -3 13 9 15 11 0
-1 -3 9 11 0
-1 -3 9 15 11 0
-1 -3 9 16 11 0
-1 -3 9 15 16 11 0
-1 -3 13 9 11 0
-1 -3 13 9 15 11 0
-1 -3 9 11 0
-1 -3 9 15 11 0
-1 -3 9 16 11 0
-1 -3 9 15 16 11 0
-1 -3 13 9 11 0
-1 -3 13 9 15 11 0
-1 -3 9 11 0
-1 -3 9 15 11 0
-1 -3 9 16 11 0
-1 -3 9 15 16 11 0
-1 -3 13 11 0
-1 -3 13 15 11 0
-1 -3 11 0
-1 -3 15 11 0
-1 -3 16 11 0
-1 -3 15 16 11 0
-1 -3 13 11 0
-1 -3 13 15 11 0
-1 -3 11 0
-1 -3 15 11 0
-1 -3 16 11 0
-1 -3 15 16 11 0
-1 -3 13 11 0
-1 -3 13 15 11 0
-1 -3 11 0
-1 -3 15 11 0
-1 -3 16 11 0
-1 -3 15 16 11 0
-1 -3 13 11 0
-1 -3 13 15 11 0
-1 -3 11 0
-1 -3 15 11 0
-1 -3 16 11 0
-1 -3 15 16 11 0
-1 -3 13 11 0
-1 -3 13 15 11 0
-1 -3 11 0
-1 -3 15 11 0
-1 -3 16 11 0
-1 -3 15 16 11 0
-1 -3 13 11 0
-1 -3 13 15 11 0
-1 -3 11 0
-1 -3 15 11 0
-1 -3 16 11 0
-1 -3 15 16 11 0
-1 -3 13 9 0
-1 -3 13 9 15 0
-1 -3 9 0
-1 -3 9 15 0
-1 -3 9 16 0
-1 -3 9 15 16 0
-1 -3 13 9 0
-1 -3 13 9 15 0
-1 -3 9 0
-1 -3 9 15 0
-1 -3 9 16 0
-1 -3 9 15 16 0
-1 -3 13 9 0
-1 -3 13 9 15 0
-1 -3 9 0
-1 -3 9 15 0
-1 -3 9 16 0
-1 -3 9 15 16 0
-1 -3 13 0
-1 -3 13 15 0
-1 -3 0
-1 -3 15 0
-1 -3 16 0
-1 -3 15 16 0
-1 -3 13 0
-1 -3 13 15 0
-1 -3 0
-1 -3 15 0
-1 -3 16 0
-1 -3 15 16 0
-1 -3 13 0
-1 -3 13 15 0
-1 -3 0
-1 -3 15 0
-1 -3 16 0
-1 -3 15 16 0
-1 -3 13 0
-1 -3 13 15 0
-1 -3 0
-1 -3 15 0
-1 -3 16 0
-1 -3 15 16 0
-1 -3 13 0
-1 -3 13 15 0
-1 -3 0
-1 -3 15 0
-1 -3 16 0
-1 -3 15 16 0
-1 -3 13 0
-1 -3 13 15 0
-1 -3 0
-1 -3 15 0
-1 -3 16 0
-1 -3 15 16 0
-1 -3 13 9 0
-1 -3 13 9 15 0
-1 -3 9 0
-1 -3 9 15 0
-1 -3 9 16 0
-1 -3 9 15 16 0
-1 -3 13 9 0
-1 -3 13 9 15 0
-1 -3 9 0
-1 -3 9 15 0
-1 -3 9 16 0
-1 -3 9 15 16 0
-1 -3 13 9 0
-1 -3 13 9 15 0
-1 -3 9 0
-1 -3 9 15 0
-1 -3 9 16 0
-1 -3 9 15 16 0
-1 -3 13 0
-1 -3 13 15 0
-1 -3 0
-1 -3 15 0
-1 -3 16 0
-1 -3 15 16 0
-1 -3 13 0
-1 -3 13 15 0
-1 -3 0
-1 -3 15 0
-1 -3 16 0
-1 -3 15 16 0
-1 -3 13 0
-1 -3 13 15 0
-1 -3 0
-1 -3 15 0
-1 -3 16 0
-1 -3 15 16 0
-1 -3 13 0
-1 -3 13 15 0
-1 -3 0
-1 -3 15 0
-1 -3 16 0
-1 -3 15 16 0
-1 -3 13 0
-1 -3 13 15 0
-1 -3 0
-1 -3 15 0
-1 -3 16 0
-1 -3 15 16 0
-1 -3 13 0
-1 -3 13 15 0
-1 -3 0
-1 -3 15 0
-1 -3 16 0
-1 -3 15 16 0
-1 -3 0
