p cnf 16 696
3 0
1 0
2 0
3 0
2 0
3 0
2 0
2 0
1 0
3 0
1 0
2 0
1 0
2 0
3 0
2 0
2 0
2 0
3 0
-5 -7 0
1 0
2 0
3 0
2 0
2 0
3 0
3 0
1 0
3 0
2 0
2 0
1 0
1 0
3 0
-14 -16 0
2 0
3 0
1 0
3 0
1 0
2 0
-15 -5 0
1 0
3 0
2 0
-8 -10 0
2 0
1 0
1 0
2 0
1 0
-13 -16 0
1 0
3 0
4 -15 0
1 0
1 0
1 0
4 -9 0
1 0
2 0
1 0
2 0
-13 -10 0
1 0
1 0
2 0
1 0
-13 -11 0
3 0
3 0
-13 -12 0
3 0
3 0
2 0
1 0
2 0
-5 -9 0
1 0
1 0
1 0
2 0
2 0
3 0
2 0
1 0
3 0
3 0
1 0
-8 -11 0
3 0
3 0
2 0
1 0
2 0
2 0
2 0
2 0
1 0
1 0
1 0
3 0
1 0
1 0
1 0
3 0
1 0
3 0
1 0
1 0
1 0
1 0
-7 -9 0
2 0
1 0
2 0
1 0
1 0
1 0
2 0
3 0
2 0
-6 -12 0
2 0
2 0
3 0
4 -7 0
2 0
3 0
3 0
-15 -9 0
2 0
1 0
1 0
1 0
1 0
-8 -12 0
3 0
2 0
2 0
1 0
2 0
2 0
1 0
2 0
2 0
1 0
2 0
2 0
2 0
1 0
2 0
3 0
-15 -7 0
-8 -16 0
1 0
-11 -6 0
3 0
2 0
1 0
1 0
3 0
3 0
-13 -14 0
3 0
1 0
2 0
1 0
1 0
2 0
3 0
1 0
2 0
3 0
-10 -6 0
-5 -10 0
3 0
1 0
2 0
2 0
3 0
1 0
1 0
1 0
3 0
3 0
3 0
1 0
-14 -8 0
2 0
3 0
2 0
2 0
1 0
3 0
3 0
2 0
2 0
1 0
2 0
2 0
2 0
1 0
1 0
3 0
1 0
2 0
2 0
3 0
3 0
1 0
3 0
2 0
1 0
3 0
1 0
3 0
3 0
2 0
2 0
3 0
2 0
3 0
2 0
2 0
2 0
2 0
1 0
2 0
-5 -11 0
3 0
3 0
3 0
1 0
3 0
-16 -6 0
1 0
1 0
3 0
2 0
1 0
1 0
1 0
3 0
2 0
3 0
2 0
1 0
3 0
1 0
3 0
3 0
1 0
3 0
2 0
3 0
2 0
2 0
2 0
3 0
1 0
-14 -6 0
2 0
1 0
2 0
2 0
1 0
2 0
-13 -8 0
3 0
2 0
3 0
2 0
-15 -11 0
1 0
3 0
3 0
1 0
1 0
3 0
2 0
3 0
3 0
2 0
3 0
2 0
3 0
1 0
2 0
2 0
2 0
3 0
3 0
-9 -12 0
2 0
4 -10 0
2 0
1 0
1 0
2 0
2 0
-10 -9 0
3 0
2 0
2 0
3 0
2 0
3 0
1 0
3 0
1 0
-11 -9 0
2 0
-14 -5 0
2 0
1 0
4 -11 0
1 0
3 0
3 0
-5 -12 0
4 -12 0
3 0
3 0
1 0
2 0
2 0
3 0
-15 -10 0
1 0
2 0
2 0
3 0
1 0
3 0
1 0
1 0
3 0
3 0
-8 -6 0
1 0
2 0
2 0
2 0
1 0
3 0
-4 15 13 14 8 16 5 7 10 11 6 9 12 0
-16 -5 0
1 0
-13 -6 0
1 0
2 0
1 0
1 0
1 0
2 0
-15 -12 0
3 0
2 0
3 0
3 0
2 0
2 0
2 0
3 0
3 0
1 0
1 0
1 0
2 0
1 0
2 0
2 0
2 0
1 0
-7 -12 0
2 0
1 0
3 0
2 0
-13 -5 0
1 0
2 0
2 0
1 0
-14 -9 0
3 0
-15 -16 0
3 0
1 0
1 0
1 0
3 0
1 0
1 0
3 0
2 0
4 -14 0
1 0
3 0
2 0
1 0
3 0
1 0
1 0
1 0
2 0
1 0
-7 -11 0
-7 -10 0
1 0
1 0
3 0
3 0
2 0
4 -16 0
1 0
1 0
2 0
3 0
2 0
1 0
3 0
1 0
3 0
-16 -9 0
3 0
2 0
-15 -14 0
2 0
3 0
2 0
2 0
2 0
2 0
2 0
1 0
2 0
1 0
1 0
1 0
3 0
3 0
1 0
-13 -9 0
1 0
1 0
2 0
2 0
4 -13 0
3 0
2 0
3 0
2 0
3 0
2 0
2 0
2 0
1 0
-5 -6 0
2 0
1 0
3 0
1 0
1 0
2 0
1 0
2 -4 0
2 0
3 0
2 0
2 0
4 -8 0
1 0
1 0
3 0
3 0
1 0
2 0
3 0
3 0
2 0
1 0
3 0
1 0
3 0
3 0
-8 -5 0
-16 -7 0
2 0
3 0
1 0
-14 -7 0
2 0
3 0
3 0
2 0
1 0
2 0
-15 -13 0
3 0
3 0
1 0
3 0
2 0
1 0
3 0
3 0
1 0
1 0
2 0
2 0
3 0
1 0
3 0
3 0
2 0
3 0
1 0
1 0
2 0
3 0
-8 -9 0
1 0
3 0
1 0
3 0
2 0
-11 -12 0
1 0
1 0
-15 -8 0
1 0
1 0
1 0
1 0
3 0
2 0
1 0
2 0
2 0
2 0
1 0
-16 -10 0
2 0
3 0
2 0
1 0
3 0
1 0
-6 -9 0
1 0
1 0
4 -6 0
1 0
1 0
3 0
2 0
2 0
2 0
3 0
2 0
1 0
1 0
1 0
3 0
3 0
1 0
3 0
-10 -11 0
-13 -7 0
2 0
-10 -12 0
2 0
1 0
1 0
3 0
3 0
3 0
2 0
2 0
2 0
3 0
2 0
2 0
1 0
3 0
3 0
3 0
1 0
2 0
2 0
2 0
3 0
1 0
1 0
1 0
1 0
2 0
2 0
-15 -6 0
1 0
1 0
1 0
1 0
3 0
3 0
3 0
1 0
3 0
-2 4 0
2 0
1 0
3 0
2 0
-14 -11 0
1 0
3 0
-14 -12 0
2 0
2 0
1 0
2 0
1 0
4 -5 0
1 0
3 0
1 0
1 0
2 0
1 0
1 0
1 0
2 0
1 0
3 0
-16 -11 0
1 0
3 0
3 0
2 0
3 0
1 0
2 0
3 0
1 0
1 0
3 0
-8 -7 0
1 0
1 0
2 0
1 0
1 0
2 0
3 0
3 0
2 0
3 0
2 0
2 0
-14 -10 0
2 0
2 0
-7 -6 0
1 0
3 0
1 0
2 0
3 0
2 0
1 0
3 0
2 0
2 0
1 0
1 0
3 0
2 0
3 0
2 0
3 0
1 0
3 0
3 0
-16 -12 0
2 0
3 0
3 0
1 0
3 0
1 0
3 0
1 0
1 0
2 0
