p cnf 12 110
-2 0
-8 0
-11 7 0
1 9 0
-11 -7 0
-11 7 0
-8 -7 0
-5 -1 0
4 0
1 -12 0
-3 0
1 -6 0
-1 9 0
1 0
-2 -10 0
-2 -6 0
-4 -10 0
-8 7 0
5 3 -2 0
-5 0
4 0
-5 -3 0
-2 -12 0
5 1 3 0
1 0
-8 0
-8 0
4 0
-8 0
1 0
-11 0
-1 -7 0
-6 -12 0
4 0
1 0
-3 -7 0
9 0
-5 -7 0
9 -6 0
-11 0
1 9 0
-12 0
4 0
-1 4 2 6 12 10 0
-8 0
-5 0
-3 4 2 6 12 10 0
-3 0
1 0
-8 0
4 0
-8 0
-11 0
1 0
-6 0
-11 -8 0
-8 7 0
-5 4 2 6 12 10 0
-5 0
-4 -2 0
1 11 3 0
5 1 3 0
-12 0
1 -4 0
-2 -10 0
1 0
4 0
1 0
-11 -8 0
-6 -10 0
-3 -2 0
-2 0
1 0
5 1 3 7 0
9 0
-11 7 0
-7 0
9 0
1 0
-11 0
-4 -6 0
-8 0
-4 -12 0
-12 0
1 -9 0
1 7 0
-11 0
-12 -10 0
-1 -3 0
-8 0
-7 0
9 2 0
-5 0
-11 0
-5 -3 0
-8 0
-2 0
-11 -8 0
-7 0
-7 4 2 6 12 10 0
1 7 2 0
-5 0
-3 0
-8 7 0
-11 0
-12 0
3 -10 0
4 0
9 0
-11 0
