p cnf 12 102
-2 0
5 11 10 0
-12 -8 0
-1 4 2 7 0
-9 0
-5 0
-6 -8 0
-12 8 0
1 8 2 0
-9 -8 0
-6 -1 0
-2 0
1 -7 0
-3 0
-2 -7 0
-9 8 0
-1 -3 0
-4 0
-12 -9 0
-9 0
1 0
7 0
1 0
-5 -11 0
-9 0
-9 0
-1 -8 0
-6 0
-3 0
6 1 3 8 0
1 0
-12 0
-12 0
-8 0
-6 0
-8 0
-12 0
-9 0
-12 0
-9 8 0
-12 -9 0
1 0
-8 4 2 7 0
1 0
-2 0
1 0
-12 0
-10 -4 0
-6 -3 0
-3 0
1 -4 0
1 8 0
-3 4 2 7 0
-8 0
-4 0
1 0
-6 4 2 7 0
1 0
-4 0
5 11 10 0
6 3 -2 0
1 12 3 0
6 1 3 0
-2 0
6 1 3 0
-3 -8 0
-12 0
1 -10 0
-9 0
-3 -2 0
-12 8 0
-8 0
-5 -10 0
-4 -7 0
1 0
1 -5 0
7 0
-1 5 11 10 0
5 11 10 2 0
-4 0
-9 0
-4 -2 0
-5 -4 0
-4 0
-5 0
-12 8 0
-9 0
1 -11 0
-4 0
-6 0
-9 8 0
-6 0
-9 0
-11 0
-12 0
-9 0
-6 -3 0
-11 -10 0
5 11 10 0
-6 0
-12 -9 0
-12 0
