p cnf 12 284
-10 0
-8 0
-10 -8 0
-7 0
-4 0
-2 0
-5 0
6 0
6 0
6 0
6 0
6 0
6 0
6 0
6 0
6 0
6 0
6 0
-3 0
-11 0
-9 0
-12 0
-9 -11 0
-12 -11 0
-12 -9 0
-1 0
-1 0
-1 0
-1 3 0
-1 0
-1 0
-1 12 9 11 -3 0
-1 9 11 -3 0
-1 9 11 -3 0
-1 12 9 11 -3 0
-1 9 11 -3 0
-1 9 11 -3 0
-1 12 9 11 -3 0
-1 9 11 -3 0
-1 9 11 -3 0
-1 12 11 -3 0
-1 11 -3 0
-1 11 -3 0
-1 12 11 -3 0
-1 11 -3 0
-1 11 -3 0
-1 12 11 -3 0
-1 11 -3 0
-1 11 -3 0
-1 12 11 -3 0
-1 11 -3 0
-1 11 -3 0
-1 12 11 -3 0
-1 11 -3 0
-1 11 -3 0
-1 12 11 -3 0
-1 11 -3 0
-1 11 -3 0
-1 12 9 -3 0
-1 9 -3 0
-1 9 -3 0
-1 12 9 -3 0
-1 9 -3 0
-1 9 -3 0
-1 12 9 -3 0
-1 9 -3 0
-1 9 -3 0
-1 12 -3 0
-1 -3 0
-1 -3 0
-1 12 -3 0
-1 -3 0
-1 -3 0
-1 12 -3 0
-1 -3 0
-1 -3 0
-1 12 -3 0
-1 -3 0
-1 -3 0
-1 12 -3 0
-1 -3 0
-1 -3 0
-1 12 -3 0
-1 -3 0
-1 -3 0
-1 12 9 -3 0
-1 9 -3 0
-1 9 -3 0
-1 12 9 -3 0
-1 9 -3 0
-1 9 -3 0
-1 12 9 -3 0
-1 9 -3 0
-1 9 -3 0
-1 12 -3 0
-1 -3 0
-1 -3 0
-1 12 -3 0
-1 -3 0
-1 -3 0
-1 12 -3 0
-1 -3 0
-1 -3 0
-1 12 -3 0
-1 -3 0
-1 -3 0
-1 12 -3 0
-1 -3 0
-1 -3 0
-1 12 -3 0
-1 -3 0
-1 -3 0
-1 12 9 11 -3 0
-1 12 9 11 -3 0
-1 9 11 -3 0
-1 9 11 -3 0
-1 9 11 -3 0
-1 9 11 -3 0
-1 12 9 11 -3 0
-1 12 9 11 -3 0
-1 9 11 -3 0
-1 9 11 -3 0
-1 9 11 -3 0
-1 9 11 -3 0
-1 12 9 11 -3 0
-1 12 9 11 -3 0
-1 9 11 -3 0
-1 9 11 -3 0
-1 9 11 -3 0
-1 9 11 -3 0
-1 12 11 -3 0
-1 12 11 -3 0
-1 11 -3 0
-1 11 -3 0
-1 11 -3 0
-1 11 -3 0
-1 12 11 -3 0
-1 12 11 -3 0
-1 11 -3 0
-1 11 -3 0
-1 11 -3 0
-1 11 -3 0
-1 12 11 -3 0
-1 12 11 -3 0
-1 11 -3 0
-1 11 -3 0
-1 11 -3 0
-1 11 -3 0
-1 12 11 -3 0
-1 12 11 -3 0
-1 11 -3 0
-1 11 -3 0
-1 11 -3 0
-1 11 -3 0
-1 12 11 -3 0
-1 12 11 -3 0
-1 11 -3 0
-1 11 -3 0
-1 11 -3 0
-1 11 -3 0
-1 12 11 -3 0
-1 12 11 -3 0
-1 11 -3 0
-1 11 -3 0
-1 11 -3 0
-1 11 -3 0
-1 12 9 -3 0
-1 12 9 -3 0
-1 9 -3 0
-1 9 -3 0
-1 9 -3 0
-1 9 -3 0
-1 12 9 -3 0
-1 12 9 -3 0
-1 9 -3 0
-1 9 -3 0
-1 9 -3 0
-1 9 -3 0
-1 12 9 -3 0
-1 12 9 -3 0
-1 9 -3 0
-1 9 -3 0
-1 9 -3 0
-1 9 -3 0
-1 12 -3 0
-1 12 -3 0
-1 -3 0
-1 -3 0
-1 -3 0
-1 -3 0
-1 12 -3 0
-1 12 -3 0
-1 -3 0
-1 -3 0
-1 -3 0
-1 -3 0
-1 12 -3 0
-1 12 -3 0
-1 -3 0
-1 -3 0
-1 -3 0
-1 -3 0
-1 12 -3 0
-1 12 -3 0
-1 -3 0
-1 -3 0
-1 -3 0
-1 -3 0
-1 12 -3 0
-1 12 -3 0
-1 -3 0
-1 -3 0
-1 -3 0
-1 -3 0
-1 12 -3 0
-1 12 -3 0
-1 -3 0
-1 -3 0
-1 -3 0
-1 -3 0
-1 12 9 -3 0
-1 12 9 -3 0
-1 9 -3 0
-1 9 -3 0
-1 9 -3 0
-1 9 -3 0
-1 12 9 -3 0
-1 12 9 -3 0
-1 9 -3 0
-1 9 -3 0
-1 9 -3 0
-1 9 -3 0
-1 12 9 -3 0
-1 12 9 -3 0
-1 9 -3 0
-1 9 -3 0
-1 9 -3 0
-1 9 -3 0
-1 12 -3 0
-1 12 -3 0
-1 -3 0
-1 -3 0
-1 -3 0
-1 -3 0
-1 12 -3 0
-1 12 -3 0
-1 -3 0
-1 -3 0
-1 -3 0
-1 -3 0
-1 12 -3 0
-1 12 -3 0
-1 -3 0
-1 -3 0
-1 -3 0
-1 -3 0
-1 12 -3 0
-1 12 -3 0
-1 -3 0
-1 -3 0
-1 -3 0
-1 -3 0
-1 12 -3 0
-1 12 -3 0
-1 -3 0
-1 -3 0
-1 -3 0
-1 -3 0
-1 12 -3 0
-1 12 -3 0
-1 -3 0
-1 -3 0
-1 -3 0
-1 -3 0
-1 0
-1 0
-1 0
-1 0
-1 0
-1 0
-1 0
-1 0
-1 0
-1 0
