p cnf 8 471
1 0
2 0
2 0
1 0
2 0
2 0
1 0
1 0
2 0
1 0
2 0
2 0
2 0
2 0
-4 -6 0
1 0
2 0
2 0
2 0
1 0
2 0
2 0
1 0
1 0
2 0
1 0
1 0
1 0
2 0
1 0
2 0
2 0
1 0
1 0
2 0
1 0
1 0
1 0
1 0
1 0
3 -8 0
1 0
2 0
1 0
2 0
1 0
1 0
2 0
1 0
1 0
2 0
1 0
2 0
-4 -8 0
1 0
1 0
2 0
2 0
2 0
1 0
1 0
1 0
2 0
1 0
2 0
2 0
1 0
2 0
2 0
1 0
1 0
1 0
1 0
1 0
1 0
1 0
1 0
1 0
1 0
1 0
-6 -8 0
2 0
1 0
2 0
1 0
1 0
1 0
2 0
2 0
2 0
2 0
3 -6 0
2 0
2 0
1 0
1 0
1 0
1 0
2 0
2 0
1 0
2 0
2 0
1 0
1 0
2 0
2 0
1 0
2 0
2 0
2 0
2 0
1 0
1 0
2 0
1 0
1 0
1 0
1 0
2 0
1 0
1 0
1 0
2 0
1 0
2 0
1 0
2 0
2 0
1 0
1 0
1 0
1 0
1 0
2 0
2 0
1 0
2 0
1 0
1 0
2 0
2 0
1 0
2 0
2 0
2 0
1 0
1 0
1 0
2 0
2 0
1 0
2 0
1 0
1 0
2 0
2 0
2 0
2 0
2 0
2 0
2 0
1 0
2 0
1 0
1 0
1 0
2 0
1 0
1 0
2 0
2 0
1 0
1 0
2 0
1 0
1 0
2 0
2 0
2 0
1 0
1 0
2 0
1 0
2 0
2 0
1 0
2 0
2 0
2 0
1 0
1 0
1 0
1 0
1 0
2 0
2 0
2 0
1 0
2 0
2 0
2 0
2 0
2 0
1 0
1 0
2 0
2 0
2 0
2 0
2 0
1 0
1 0
2 0
2 0
1 0
1 0
1 0
2 0
2 0
1 0
2 0
2 0
1 0
1 0
1 0
-7 -5 0
1 0
2 0
1 0
2 0
2 0
1 0
1 0
1 0
2 0
1 0
1 0
1 0
2 0
-3 7 4 6 5 8 0
2 0
2 0
2 0
2 0
1 0
1 0
1 0
1 0
2 0
1 0
2 0
2 0
2 0
1 0
2 0
1 0
2 0
1 0
2 0
2 0
1 0
1 0
1 0
1 0
1 0
1 0
2 0
1 0
2 0
1 0
1 0
1 0
1 0
2 0
1 0
1 0
1 0
2 0
1 0
1 0
2 0
2 0
1 0
1 0
2 0
2 0
2 0
2 0
2 0
2 0
2 0
1 0
2 0
1 0
1 0
1 0
1 0
1 0
1 0
2 0
2 0
2 0
1 0
2 0
2 0
2 0
2 0
1 0
-4 -5 0
2 0
1 0
1 0
2 0
1 0
2 -3 0
2 0
2 0
2 0
3 -7 0
1 0
1 0
1 0
2 0
2 0
1 0
1 0
1 0
-7 -4 0
2 0
1 0
2 0
2 0
2 0
1 0
2 0
1 0
1 0
1 0
1 0
1 0
2 0
2 0
1 0
2 0
1 0
1 0
2 0
-7 -8 0
1 0
1 0
1 0
2 0
1 0
1 0
1 0
1 0
1 0
1 0
2 0
1 0
2 0
2 0
2 0
1 0
2 0
1 0
2 0
1 0
1 0
-5 -8 0
1 0
1 0
3 -5 0
1 0
1 0
2 0
2 0
2 0
2 0
1 0
1 0
1 0
2 0
2 0
1 0
1 0
1 0
2 0
2 0
2 0
2 0
2 0
1 0
1 0
2 0
2 0
2 0
1 0
1 0
1 0
1 0
2 0
2 0
1 0
1 0
1 0
1 0
1 0
-2 3 0
2 0
1 0
2 0
1 0
2 0
2 0
1 0
2 0
1 0
3 -4 0
1 0
1 0
1 0
2 0
1 0
1 0
1 0
2 0
1 0
1 0
2 0
1 0
2 0
1 0
1 0
1 0
-7 -6 0
1 0
1 0
2 0
1 0
1 0
2 0
2 0
2 0
2 0
2 0
1 0
2 0
-6 -5 0
1 0
1 0
1 0
2 0
2 0
1 0
2 0
2 0
1 0
1 0
2 0
1 0
2 0
1 0
2 0
1 0
1 0
1 0
1 0
1 0
2 0
