p cnf 12 265
-9 0
-7 0
-9 -7 0
-6 0
4 0
2 0
-5 0
-11 0
-11 0
-3 0
-10 0
-8 0
-12 0
-8 -10 0
-12 -10 0
-12 -8 0
-1 0
-1 0
2 0
4 0
-1 3 0
-1 12 8 10 -3 0
-1 8 10 -3 0
-1 8 10 -3 0
-1 12 8 10 -3 0
-1 8 10 -3 0
-1 8 10 -3 0
-1 12 8 10 -3 0
-1 8 10 -3 0
-1 8 10 -3 0
-1 12 10 -3 0
-1 10 -3 0
-1 10 -3 0
-1 12 10 -3 0
-1 10 -3 0
-1 10 -3 0
-1 12 10 -3 0
-1 10 -3 0
-1 10 -3 0
-1 12 10 -3 0
-1 10 -3 0
-1 10 -3 0
-1 12 10 -3 0
-1 10 -3 0
-1 10 -3 0
-1 12 10 -3 0
-1 10 -3 0
-1 10 -3 0
-1 12 8 -3 0
-1 8 -3 0
-1 8 -3 0
-1 12 8 -3 0
-1 8 -3 0
-1 8 -3 0
-1 12 8 -3 0
-1 8 -3 0
-1 8 -3 0
-1 12 -3 0
-1 -3 0
-1 -3 0
-1 12 -3 0
-1 -3 0
-1 -3 0
-1 12 -3 0
-1 -3 0
-1 -3 0
-1 12 -3 0
-1 -3 0
-1 -3 0
-1 12 -3 0
-1 -3 0
-1 -3 0
-1 12 -3 0
-1 -3 0
-1 -3 0
-1 12 8 -3 0
-1 8 -3 0
-1 8 -3 0
-1 12 8 -3 0
-1 8 -3 0
-1 8 -3 0
-1 12 8 -3 0
-1 8 -3 0
-1 8 -3 0
-1 12 -3 0
-1 -3 0
-1 -3 0
-1 12 -3 0
-1 -3 0
-1 -3 0
-1 12 -3 0
-1 -3 0
-1 -3 0
-1 12 -3 0
-1 -3 0
-1 -3 0
-1 12 -3 0
-1 -3 0
-1 -3 0
-1 12 -3 0
-1 -3 0
-1 -3 0
-1 12 8 10 -3 0
-1 12 8 10 -3 0
-1 8 10 -3 0
-1 8 10 -3 0
-1 8 10 -3 0
-1 8 10 -3 0
-1 12 8 10 -3 0
-1 12 8 10 -3 0
-1 8 10 -3 0
-1 8 10 -3 0
-1 8 10 -3 0
-1 8 10 -3 0
-1 12 8 10 -3 0
-1 12 8 10 -3 0
-1 8 10 -3 0
-1 8 10 -3 0
-1 8 10 -3 0
-1 8 10 -3 0
-1 12 10 -3 0
-1 12 10 -3 0
-1 10 -3 0
-1 10 -3 0
-1 10 -3 0
-1 10 -3 0
-1 12 10 -3 0
-1 12 10 -3 0
-1 10 -3 0
-1 10 -3 0
-1 10 -3 0
-1 10 -3 0
-1 12 10 -3 0
-1 12 10 -3 0
-1 10 -3 0
-1 10 -3 0
-1 10 -3 0
-1 10 -3 0
-1 12 10 -3 0
-1 12 10 -3 0
-1 10 -3 0
-1 10 -3 0
-1 10 -3 0
-1 10 -3 0
-1 12 10 -3 0
-1 12 10 -3 0
-1 10 -3 0
-1 10 -3 0
-1 10 -3 0
-1 10 -3 0
-1 12 10 -3 0
-1 12 10 -3 0
-1 10 -3 0
-1 10 -3 0
-1 10 -3 0
-1 10 -3 0
-1 12 8 -3 0
-1 12 8 -3 0
-1 8 -3 0
-1 8 -3 0
-1 8 -3 0
-1 8 -3 0
-1 12 8 -3 0
-1 12 8 -3 0
-1 8 -3 0
-1 8 -3 0
-1 8 -3 0
-1 8 -3 0
-1 12 8 -3 0
-1 12 8 -3 0
-1 8 -3 0
-1 8 -3 0
-1 8 -3 0
-1 8 -3 0
-1 12 -3 0
-1 12 -3 0
-1 -3 0
-1 -3 0
-1 -3 0
-1 -3 0
-1 12 -3 0
-1 12 -3 0
-1 -3 0
-1 -3 0
-1 -3 0
-1 -3 0
-1 12 -3 0
-1 12 -3 0
-1 -3 0
-1 -3 0
-1 -3 0
-1 -3 0
-1 12 -3 0
-1 12 -3 0
-1 -3 0
-1 -3 0
-1 -3 0
-1 -3 0
-1 12 -3 0
-1 12 -3 0
-1 -3 0
-1 -3 0
-1 -3 0
-1 -3 0
-1 12 -3 0
-1 12 -3 0
-1 -3 0
-1 -3 0
-1 -3 0
-1 -3 0
-1 12 8 -3 0
-1 12 8 -3 0
-1 8 -3 0
-1 8 -3 0
-1 8 -3 0
-1 8 -3 0
-1 12 8 -3 0
-1 12 8 -3 0
-1 8 -3 0
-1 8 -3 0
-1 8 -3 0
-1 8 -3 0
-1 12 8 -3 0
-1 12 8 -3 0
-1 8 -3 0
-1 8 -3 0
-1 8 -3 0
-1 8 -3 0
-1 12 -3 0
-1 12 -3 0
-1 -3 0
-1 -3 0
-1 -3 0
-1 -3 0
-1 12 -3 0
-1 12 -3 0
-1 -3 0
-1 -3 0
-1 -3 0
-1 -3 0
-1 12 -3 0
-1 12 -3 0
-1 -3 0
-1 -3 0
-1 -3 0
-1 -3 0
-1 12 -3 0
-1 12 -3 0
-1 -3 0
-1 -3 0
-1 -3 0
-1 -3 0
-1 12 -3 0
-1 12 -3 0
-1 -3 0
-1 -3 0
-1 -3 0
-1 -3 0
-1 12 -3 0
-1 12 -3 0
-1 -3 0
-1 -3 0
-1 -3 0
-1 -3 0
-1 -3 0
