p cnf 16 128
-9 0
-1 -11 12 16 0
6 -13 -14 0
-9 0
-15 0
8 9 -13 -15 0
-15 0
6 -13 -14 0
8 9 -13 -15 0
-1 -11 12 16 0
3 -12 -13 16 0
-9 0
2 3 -10 12 0
5 -8 9 15 0
5 -8 9 15 0
-2 5 0
5 -8 9 15 0
-2 5 0
6 -13 -14 0
6 -13 -14 0
5 -8 9 15 0
-8 11 -15 0
-8 11 -15 0
6 9 11 0
-8 11 -15 0
5 -8 9 15 0
-9 0
8 9 -13 -15 0
-2 5 0
8 9 -13 -15 0
-8 11 -15 0
5 -8 9 15 0
-2 5 0
-1 -11 12 16 0
5 -8 9 15 0
2 3 -10 12 0
5 -8 9 15 0
6 9 11 0
8 9 -13 -15 0
6 9 11 0
-2 5 0
6 9 11 0
5 -8 9 15 0
5 -8 9 15 0
8 9 -13 -15 0
-2 5 0
-9 13 0
-8 11 -15 0
3 -12 -13 16 0
2 3 -10 12 0
6 -13 -14 0
8 9 -13 -15 0
-6 -9 -15 16 0
5 -8 9 15 0
6 9 11 0
-2 5 0
-6 -9 -15 16 0
-6 -9 -15 16 0
-9 13 0
5 -8 9 15 0
-2 5 0
-2 5 0
3 -12 -13 16 0
-9 13 0
-6 -9 -15 16 0
-9 0
3 -12 -13 16 0
-6 -9 -15 16 0
6 9 11 0
8 9 -13 -15 0
6 -13 -14 0
6 -13 -14 0
-1 -11 12 16 0
-1 -11 12 16 0
-2 5 0
-2 5 0
6 -13 -14 0
2 3 -10 12 0
5 -8 9 15 0
-2 5 0
-15 0
-6 -9 -15 16 0
6 9 11 0
-8 11 -15 0
-1 -11 12 16 0
5 -8 9 15 0
-6 -9 -15 16 0
-8 11 -15 0
-15 0
6 9 11 0
-15 0
-1 -11 12 16 0
6 -13 -14 0
5 -8 9 15 0
8 9 -13 -15 0
-9 0
-9 13 0
-15 0
6 -13 -14 0
3 -12 -13 16 0
-8 11 -15 0
6 -13 -14 0
-1 -11 12 16 0
5 -8 9 15 0
2 3 -10 12 0
-2 5 0
-15 0
6 -13 -14 0
-6 -9 -15 16 0
-9 13 0
3 -12 -13 16 0
-1 -11 12 16 0
-1 -11 12 16 0
6 -13 -14 0
8 9 -13 -15 0
5 -8 9 15 0
8 9 -13 -15 0
-2 5 0
5 -8 9 15 0
6 9 11 0
2 3 -10 12 0
6 9 11 0
-9 13 0
-1 -11 12 16 0
6 -13 -14 0
2 3 -10 12 0
5 -8 9 15 0
-9 0
