p cnf 12 120
-7 -8 0
1 0
-7 -12 0
1 0
1 -7 0
1 0
12 0
-7 -3 0
-9 -11 0
1 -8 0
12 0
1 -5 0
1 0
-10 0
-2 -12 0
-8 0
-8 0
-8 -9 0
-3 -8 0
-10 0
1 0
-8 -4 0
1 6 0
-2 -8 0
-5 -3 0
-3 0
-7 -9 0
-3 -9 0
-4 -9 0
-6 0
-11 0
-8 0
1 -10 0
1 0
-2 0
-8 0
-4 -11 0
-4 -12 0
-6 0
1 6 2 0
-5 0
1 -12 0
-3 0
-3 -11 0
1 0
1 -4 0
-1 7 3 10 2 8 4 12 9 11 0
1 -3 0
-2 0
-2 0
-2 -9 0
-6 0
-3 -4 0
-7 -11 0
-9 0
-8 -11 0
-8 -11 0
-6 0
-6 7 3 10 2 8 4 12 9 11 0
-10 -2 0
1 0
-2 -4 0
-7 -10 0
1 6 0
1 0
1 0
-7 0
-5 0
-11 0
-8 0
-3 0
-4 0
-7 0
-3 0
-7 -2 0
1 0
12 0
-11 0
-2 0
-7 -8 0
-11 0
-7 0
1 0
-10 -11 0
-2 -11 0
-3 -2 0
1 -7 0
-2 0
-10 0
1 -11 0
-12 -9 0
1 -11 0
-3 0
12 0
-12 -11 0
-10 -9 0
-7 -11 0
-5 0
-10 -4 0
-8 -12 0
1 0
-2 -9 0
-7 0
-6 0
1 0
-7 -4 0
12 0
5 -4 0
-3 -10 0
1 -8 0
1 0
1 6 0
1 0
-7 0
-1 -6 0
-3 0
-3 -12 0
-3 0
-10 -8 0
-10 -12 0
