p cnf 12 398
2 0
4 0
6 0
3 0
3 1 0
2 0
3 0
2 0
3 1 0
1 0
7 12 0
3 1 0
3 1 0
3 0
7 0
5 0
5 0
10 0
3 -10 0
4 0
5 0
11 0
4 0
6 0
5 0
3 1 0
3 0
1 12 0
2 1 0
3 1 0
3 0
3 1 0
2 6 0
3 1 0
7 12 0
3 -11 0
5 0
2 0
-11 1 0
3 1 0
5 0
2 0
3 1 0
1 0
1 0
11 0
1 0
2 1 0
3 0
2 0
3 0
4 0
2 0
3 6 0
1 0
3 1 0
1 0
1 0
3 1 0
1 0
2 0
10 0
5 0
3 0
3 12 0
3 1 0
2 0
3 1 0
2 0
3 -11 1 0
10 0
3 0
3 1 0
1 0
4 0
2 0
2 0
-12 0
3 1 0
2 0
2 0
3 6 0
1 0
2 0
3 1 0
7 12 0
2 0
1 0
1 0
2 0
3 1 0
2 0
6 0
3 0
1 0
2 0
3 1 0
3 0
2 0
3 2 0
1 0
3 1 0
2 0
2 1 0
5 0
2 0
3 0
3 1 0
3 1 0
1 0
4 0
1 0
4 0
7 12 0
4 0
3 1 0
2 0
2 0
7 12 0
1 0
7 12 0
4 0
4 0
1 6 0
4 0
7 0
2 0
1 0
2 0
3 1 0
7 0
3 0
3 1 0
1 0
2 0
7 0
1 0
2 0
2 0
12 6 0
3 1 0
2 -4 0
3 6 0
3 2 0
2 0
3 0
3 -1 0
4 0
1 0
2 0
3 0
6 0
2 5 0
2 0
2 0
3 0
2 -5 0
5 0
2 0
3 0
3 1 0
5 0
4 0
2 0
-12 0
3 0
2 0
3 1 0
1 0
1 0
3 1 0
1 0
1 0
2 0
1 6 0
5 0
3 1 0
7 0
3 1 0
3 1 0
7 12 0
3 0
4 0
2 0
3 1 0
3 6 0
4 0
3 1 0
7 0
11 0
3 0
5 0
3 0
1 6 0
7 12 0
4 0
2 0
1 0
5 0
4 0
10 0
8 0
7 0
1 0
-2 4 0
1 0
3 0
5 0
2 1 0
2 0
4 0
3 0
3 1 0
3 0
1 0
4 0
2 0
2 0
4 0
4 0
1 6 0
8 0
4 0
2 1 0
1 0
-10 1 0
2 0
3 0
4 0
3 0
1 0
7 0
5 0
10 0
4 0
3 0
3 1 0
2 0
1 0
3 1 0
1 0
-9 0
1 0
1 0
2 0
6 0
1 0
3 6 0
2 0
2 0
2 0
3 1 0
6 0
1 0
4 0
1 0
5 0
7 12 0
1 0
1 0
11 0
6 0
3 0
3 0
2 0
2 0
3 0
2 0
3 0
-3 5 0
1 0
1 6 0
4 0
5 0
3 1 0
1 6 0
1 0
3 0
3 1 0
2 0
2 0
11 0
6 0
1 0
1 0
4 0
1 0
1 0
2 0
2 0
3 0
7 0
5 0
3 0
2 0
3 0
3 6 0
1 0
2 0
2 0
3 1 0
3 1 0
3 1 0
3 1 0
3 0
4 0
2 0
2 0
11 0
2 0
10 0
4 0
7 12 0
4 0
7 12 0
2 0
2 0
4 0
2 1 0
2 0
3 0
1 0
1 0
2 0
11 0
2 0
5 0
1 0
2 0
7 0
4 0
2 0
1 0
2 0
3 0
5 0
4 0
2 0
3 0
3 0
3 0
1 0
6 0
1 0
1 0
2 0
2 0
1 0
5 0
2 0
3 1 0
2 0
3 6 0
2 0
-2 5 0
3 0
2 1 0
1 0
3 1 0
2 0
3 1 0
3 1 0
3 0
4 0
11 0
1 6 0
2 0
3 0
3 0
2 0
6 0
4 0
5 0
2 0
5 0
3 1 0
2 0
2 0
3 -5 0
3 0
4 0
1 0
1 0
3 0
2 0
3 0
3 -10 1 0
4 0
2 0
3 1 0
-9 0
3 0
3 0
3 0
7 0
2 0
1 0
2 6 0
