p cnf 16 390
-4 0
1 -15 -16 0
-10 -6 0
1 0
-6 -9 0
-10 -4 0
-13 -15 0
1 -10 -4 0
2 -1 -15 -12 0
1 -4 -3 0
2 -1 -10 -14 0
-4 -16 0
1 -13 -9 0
1 -14 -5 0
-1 -14 0
2 -1 -6 -12 0
-6 -7 0
1 -10 -3 0
2 -1 -11 -6 0
-1 4 -3 6 5 9 7 0
-2 -1 -8 0
-8 0
2 -1 -5 -15 0
-8 -5 0
1 -6 -5 0
-1 -3 0
2 -1 -8 -11 0
1 -6 -9 0
2 -1 -3 -16 0
-13 -14 0
-2 1 8 13 11 10 4 14 3 6 5 9 15 12 16 7 0
2 -1 -8 0
2 -1 -9 -7 0
2 -1 -9 0
2 -1 -13 0
2 -1 -11 -3 0
2 -1 -6 0
2 -1 -6 0
-8 -10 0
2 -1 -13 -11 0
2 -1 -8 -16 0
-13 -10 0
1 -11 -4 0
1 -11 -7 0
1 -13 -15 0
2 -1 -14 -5 0
1 -8 0
1 -13 -3 0
1 -8 -14 0
-2 8 13 11 10 4 14 3 6 5 9 15 12 16 7 0
2 -1 -11 -4 0
2 -1 -4 -3 0
-6 -12 0
2 -1 -5 0
-1 -3 0
2 -1 -10 -3 0
2 -1 -15 0
1 -6 -15 0
1 -4 -16 0
-1 -11 0
-9 -15 0
2 -1 -4 -9 0
2 -1 -4 -12 0
-5 -15 0
1 -8 -15 0
-8 -12 0
2 -1 -10 -6 0
2 -1 -10 -7 0
2 -1 -13 -5 0
-1 -13 0
1 -6 0
1 -8 -10 0
2 -1 -3 -12 0
1 -8 0
-10 -9 0
-14 -15 0
2 -1 -3 -7 0
1 0
2 -1 -13 -7 0
2 -1 -4 0
-12 -16 0
-13 -9 0
1 -9 -7 0
2 -1 -4 -5 0
1 0
1 -16 0
2 -1 -11 0
1 -5 -12 0
1 -14 -16 0
1 -8 -12 0
1 -10 0
1 -11 -15 0
-8 -3 0
1 -14 -7 0
1 -9 0
2 -1 -8 -7 0
1 -3 -6 0
-15 -12 0
2 -1 -12 0
1 -12 0
2 -1 -11 -9 0
2 -1 -11 0
1 -8 -3 0
1 -10 -7 0
-1 -7 0
2 -1 -5 -7 0
-10 -7 0
-1 -11 0
-13 -11 0
-1 -15 0
-13 0
1 -15 -7 0
-15 -16 0
1 -10 0
1 -11 -12 0
-5 -16 0
2 -1 -10 -4 0
1 -14 -6 0
1 -4 -6 0
-14 -16 0
2 -1 -8 -13 0
-3 -12 0
2 -1 -9 -16 0
-10 -14 0
2 -1 -14 -6 0
2 -1 -10 -15 0
2 -1 -10 0
2 -1 -13 -10 0
-15 0
2 -1 -14 -12 0
-16 0
1 -11 -5 0
1 -11 -14 0
1 -3 -7 0
1 -9 -16 0
-1 -4 0
2 -1 -3 -5 0
-6 -16 0
1 -11 -10 0
1 -9 0
1 -3 0
2 -1 -13 0
1 -8 -4 0
-14 -9 0
-11 -6 0
2 -1 -4 0
-1 -10 0
1 -13 -5 0
2 -1 -15 -7 0
1 -10 -6 0
2 -1 -3 0
1 -10 -15 0
-8 -16 0
-6 0
1 -9 -12 0
-11 -4 0
2 -1 -14 -15 0
2 -1 -16 -7 0
-13 -7 0
-8 0
-9 -16 0
2 -1 -14 0
1 -8 -5 0
-8 -11 0
-1 -4 0
-4 -9 0
1 -3 0
1 -5 0
2 -1 -4 -7 0
1 -10 -12 0
1 -13 -4 0
-13 -4 0
1 -4 -12 0
-3 -16 0
-8 -9 0
-3 -5 0
-1 -4 -3 0
1 -16 -7 0
1 -8 -16 0
-11 -15 0
2 -1 -13 -9 0
-10 -12 0
-3 -9 0
1 -16 0
1 -3 -12 0
2 -1 -5 0
2 -1 -3 -15 0
2 -1 -11 -15 0
2 -1 -13 -12 0
-5 -12 0
-10 -3 0
2 -1 -11 -10 0
2 -1 -8 -14 0
2 -1 -10 -16 0
-11 -9 0
-3 0
-14 -12 0
-6 0
1 -14 -3 0
-14 -6 0
1 -14 -15 0
1 -10 -9 0
2 -1 -13 -4 0
-12 -7 0
1 -11 0
1 -5 -9 0
1 -13 -10 0
-12 0
1 0
-8 0
2 -1 -13 -6 0
2 -1 -10 -9 0
1 -11 -16 0
2 -1 -4 -6 0
2 -1 -8 -5 0
2 -1 -8 -4 0
1 -10 -16 0
2 -1 -4 -16 0
1 -3 -5 0
-1 -3 -5 0
1 -14 -9 0
-13 -3 0
2 -1 -10 0
-1 -6 0
1 -12 0
2 -1 -11 -14 0
-8 -13 0
1 -12 -16 0
-11 -12 0
-6 -5 0
1 -8 -13 0
2 -1 -8 -10 0
2 -1 -9 -12 0
1 -4 -7 0
2 -1 -14 0
-16 -7 0
-11 -7 0
1 -7 0
2 -1 -8 0
-5 0
1 -3 -16 0
-4 -3 0
1 -11 -3 0
1 -6 -7 0
2 -1 -5 -16 0
1 -4 -15 0
-14 -3 0
2 -1 -7 0
2 -1 -7 0
-9 -7 0
2 -1 -11 -5 0
2 -1 -8 -9 0
2 -1 -10 -12 0
-9 0
1 -8 -6 0
1 -4 -5 0
-4 -6 0
-4 -7 0
-5 -7 0
-1 -8 0
1 -5 0
1 -4 0
-7 0
2 -1 -8 -3 0
1 -13 -7 0
1 -3 -9 0
-10 -5 0
2 -1 -8 -6 0
-13 -12 0
-1 -8 -11 0
2 -1 -6 -16 0
1 -13 -14 0
-1 -7 0
1 -13 -12 0
2 -1 -14 -3 0
-13 -16 0
-6 -15 0
-8 -15 0
1 -15 0
-8 -7 0
2 -1 -11 -12 0
-15 0
-15 0
2 -1 -4 -15 0
-13 -6 0
-6 0
-11 -14 0
-14 0
1 -14 -12 0
-11 -10 0
2 -1 -15 0
-3 -7 0
2 -1 -8 -12 0
-3 -15 0
-14 -5 0
2 -1 -16 0
-11 -3 0
2 -1 -13 -15 0
-8 -4 0
1 -10 -14 0
1 -15 -12 0
1 -13 -11 0
-1 -10 0
2 -1 -6 -7 0
-8 -14 0
2 -1 -6 -5 0
1 -4 -14 0
-5 -9 0
-8 -6 0
1 -15 0
-14 -7 0
2 -1 -3 -9 0
1 -14 0
2 -1 -11 -7 0
2 -1 -11 -16 0
2 -1 -3 0
1 -6 -12 0
-3 -6 0
2 -1 -13 -16 0
2 -1 -12 -7 0
1 -8 -7 0
2 -1 -13 -14 0
1 -13 -6 0
1 -11 -9 0
1 0
-10 0
-1 4 -3 6 5 7 0
2 -1 -4 -14 0
1 -14 0
2 -1 -14 -16 0
2 -1 -16 0
1 -8 -9 0
2 -1 -8 -15 0
2 -1 -3 -6 0
1 -5 -16 0
1 -13 0
-4 -5 0
2 -1 -6 -9 0
1 -13 0
-11 -16 0
2 -1 -12 0
2 -1 -9 0
1 -6 -16 0
1 -5 -7 0
-1 -5 0
-9 0
1 -9 -15 0
-1 -5 0
-2 1 0
-2 -1 -11 0
2 -1 -5 -9 0
-4 0
2 -1 -11 0
-11 0
1 -10 -5 0
-1 -12 0
-10 -15 0
2 -1 -13 -3 0
1 -11 -6 0
2 -1 -10 -5 0
2 -1 -8 0
-4 -12 0
1 -3 -15 0
-1 -8 0
-1 -3 -7 0
-10 -16 0
1 -11 0
1 -13 -16 0
-5 0
1 -5 -15 0
1 -7 0
2 -1 -15 -16 0
2 -1 -5 -12 0
-4 -15 0
2 -1 -12 -16 0
2 -1 -9 -15 0
1 -6 0
-13 -5 0
1 -4 0
-15 -7 0
1 -4 -9 0
1 -8 -11 0
-4 -14 0
-9 -12 0
-1 -3 -6 0
2 -1 -14 -7 0
2 -1 -14 -9 0
-11 -5 0
2 -1 -6 -15 0
1 -12 -7 0
