p cnf 117 359
-29 1 0
-29 -23 0
29 -1 23 0
30 -10 0
30 -26 0
-30 10 26 0
-31 21 0
-31 30 0
-31 -23 0
31 -21 -30 23 0
32 -29 0
32 -31 0
-32 29 31 0
-1 32 0
1 -32 0
-33 9 0
-33 -7 0
33 -9 7 0
-34 3 0
-34 -7 0
34 -3 7 0
35 -33 0
35 -34 0
-35 33 34 0
-2 35 0
2 -35 0
-36 14 0
-36 -7 0
36 -14 7 0
-37 2 0
-37 -7 0
37 -2 7 0
-38 28 0
-38 -7 0
38 -28 7 0
39 -36 0
39 -37 0
39 -38 0
-39 36 37 38 0
-3 39 0
3 -39 0
40 -2 0
40 -6 0
40 -3 0
-40 2 6 3 0
-41 9 0
-41 40 0
-41 -7 0
41 -9 -40 7 0
-4 41 0
4 -41 0
-42 2 0
-42 -7 0
42 -2 7 0
-43 8 0
-43 -7 0
43 -8 7 0
-44 3 0
-44 -7 0
44 -3 7 0
45 -42 0
45 -43 0
45 -44 0
-45 42 43 44 0
-5 45 0
5 -45 0
-46 2 0
-46 -7 0
46 -2 7 0
-47 8 0
-47 -7 0
47 -8 7 0
-48 3 0
-48 -7 0
48 -3 7 0
49 -46 0
49 -47 0
49 -48 0
-49 46 47 48 0
-6 49 0
6 -49 0
-50 23 0
-50 -9 0
50 -23 9 0
-51 22 0
-51 -9 0
51 -22 9 0
-52 17 0
-52 -9 0
52 -17 9 0
53 -22 0
53 -18 0
53 -23 0
53 -17 0
53 -9 0
53 -7 0
53 -1 0
-53 22 18 23 17 9 7 1 0
54 -50 0
54 -51 0
54 -52 0
54 53 0
-54 50 51 52 -53 0
-7 54 0
7 -54 0
-55 9 0
-55 19 0
-55 -7 0
55 -9 -19 7 0
-8 55 0
8 -55 0
56 -17 0
56 -22 0
-56 17 22 0
-57 26 0
-57 -56 0
57 -26 56 0
58 -17 0
58 -22 0
-58 17 22 0
-59 9 0
-59 -58 0
59 -9 58 0
60 -17 0
60 -22 0
-60 17 22 0
-61 10 0
-61 -60 0
61 -10 60 0
62 -57 0
62 -59 0
62 -61 0
-62 57 59 61 0
-9 62 0
9 -62 0
-63 21 0
-63 12 0
63 -21 -12 0
-10 63 0
10 -63 0
-64 28 0
-64 4 0
64 -28 -4 0
-65 12 0
-65 28 0
-65 -7 0
65 -12 -28 7 0
66 -64 0
66 -65 0
-66 64 65 0
-11 66 0
11 -66 0
-67 9 0
-67 16 0
67 -9 -16 0
68 -2 0
68 -3 0
68 -67 0
-68 2 3 67 0
-69 15 0
-69 68 0
-69 -25 0
69 -15 -68 25 0
-12 69 0
12 -69 0
70 -2 0
70 -3 0
-70 2 3 0
-71 28 0
-71 70 0
71 -28 -70 0
72 -2 0
72 -3 0
-72 2 3 0
-73 18 0
-73 72 0
73 -18 -72 0
74 -71 0
74 -73 0
-74 71 73 0
-13 74 0
13 -74 0
-75 18 0
-75 -7 0
75 -18 7 0
-14 75 0
14 -75 0
76 -2 0
76 -3 0
-76 2 3 0
-77 14 0
-77 76 0
-77 -7 0
77 -14 -76 7 0
-15 77 0
15 -77 0
78 -2 0
78 -8 0
78 -3 0
-78 2 8 3 0
-79 9 0
-79 78 0
-79 -7 0
79 -9 -78 7 0
-16 79 0
16 -79 0
-80 4 0
-80 11 0
-80 24 0
80 -4 -11 -24 0
-81 9 0
-81 80 0
-81 -7 0
81 -9 -80 7 0
-17 81 0
17 -81 0
-82 18 0
-82 -9 0
82 -18 9 0
-18 82 0
18 -82 0
83 -7 0
83 -20 0
83 -12 0
-83 7 20 12 0
-84 9 0
-84 -83 0
84 -9 83 0
-19 84 0
19 -84 0
-85 19 0
-85 12 0
85 -19 -12 0
86 -24 0
86 -85 0
86 -7 0
-86 24 85 7 0
-87 9 0
-87 2 0
-87 -86 0
87 -9 -2 86 0
-20 87 0
20 -87 0
-21 18 0
21 -18 0
-88 8 0
-88 9 0
88 -8 -9 0
-89 2 0
-89 3 0
89 -2 -3 0
-90 19 0
-90 88 0
-90 -89 0
90 -19 -88 89 0
-91 8 0
-91 9 0
91 -8 -9 0
-92 13 0
-92 28 0
92 -13 -28 0
93 -92 0
93 -7 0
-93 92 7 0
-94 26 0
-94 91 0
-94 -93 0
94 -26 -91 93 0
95 -90 0
95 -94 0
-95 90 94 0
-22 95 0
22 -95 0
96 -10 0
96 -25 0
-96 10 25 0
-97 15 0
-97 1 0
-97 -96 0
97 -15 -1 96 0
98 -10 0
98 -25 0
-98 10 25 0
-99 1 0
-99 -98 0
99 -1 98 0
100 -97 0
100 -99 0
-100 97 99 0
-23 100 0
23 -100 0
-101 28 0
-101 11 0
-101 -7 0
101 -28 -11 7 0
-24 101 0
24 -101 0
-102 11 0
-102 12 0
-102 -14 0
102 -11 -12 14 0
-103 23 0
-103 -14 0
103 -23 14 0
104 -102 0
104 -103 0
-104 102 103 0
-25 104 0
25 -104 0
-105 10 0
-105 12 0
105 -10 -12 0
-106 15 0
-106 105 0
106 -15 -105 0
-107 27 0
-107 21 0
-107 -106 0
107 -27 -21 106 0
-108 21 0
-108 -14 0
108 -21 14 0
109 -107 0
109 -108 0
-109 107 108 0
-26 109 0
26 -109 0
-110 2 0
-110 6 0
-110 -7 0
110 -2 -6 7 0
-111 3 0
-111 5 0
-111 -7 0
111 -3 -5 7 0
-112 8 0
-112 -7 0
112 -8 7 0
113 -110 0
113 -111 0
113 -112 0
-113 110 111 112 0
-27 113 0
27 -113 0
-114 13 0
-114 12 0
114 -13 -12 0
115 -114 0
115 -20 0
-115 114 20 0
116 -19 0
116 -24 0
-116 19 24 0
-117 9 0
-117 115 0
-117 -116 0
117 -9 -115 116 0
-28 117 0
28 -117 0
