p cnf 63 184
-19 9 0
-19 -2 0
19 -9 2 0
-20 1 0
-20 -2 0
20 -1 2 0
-21 8 0
-21 -2 0
21 -8 2 0
22 -19 0
22 -20 0
22 -21 0
-22 19 20 21 0
-1 22 0
1 -22 0
-23 4 0
-23 11 0
23 -4 -11 0
-24 12 0
-24 23 0
-24 -2 0
24 -12 -23 2 0
-2 24 0
2 -24 0
25 -7 0
25 -9 0
25 -8 0
-25 7 9 8 0
-26 17 0
-26 -25 0
26 -17 25 0
27 -7 0
27 -9 0
27 -8 0
-27 7 9 8 0
-28 3 0
-28 -27 0
28 -3 27 0
-29 4 0
-29 17 0
29 -4 -17 0
30 -26 0
30 -28 0
30 -29 0
-30 26 28 29 0
-3 30 0
3 -30 0
-31 11 0
-31 13 0
31 -11 -13 0
-4 31 0
4 -31 0
-32 15 0
-32 7 0
32 -15 -7 0
-33 12 0
-33 32 0
33 -12 -32 0
-5 33 0
5 -33 0
34 -4 0
34 -8 0
34 -9 0
34 -7 0
-34 4 8 9 7 0
35 -4 0
35 34 0
-35 4 -34 0
-6 35 0
6 -35 0
36 5 0
36 6 0
-36 -5 -6 0
-37 1 0
-37 36 0
-37 -3 0
37 -1 -36 3 0
38 5 0
38 6 0
-38 -5 -6 0
-39 38 0
-39 15 0
39 -38 -15 0
-40 7 0
-40 39 0
-40 -3 0
40 -7 -39 3 0
41 -37 0
41 -40 0
-41 37 40 0
-7 41 0
7 -41 0
-42 -3 0
-42 -5 0
42 3 5 0
43 5 0
43 -42 0
-43 -5 42 0
-44 16 0
-44 43 0
44 -16 -43 0
-8 44 0
8 -44 0
-9 16 0
9 -16 0
-10 -18 0
10 18 0
-11 5 0
11 -5 0
-45 12 0
-45 -2 0
45 -12 2 0
-46 14 0
-46 7 0
-46 -2 0
46 -14 -7 2 0
47 -45 0
47 -46 0
-47 45 46 0
-12 47 0
12 -47 0
-48 11 0
-48 7 0
48 -11 -7 0
-13 48 0
13 -48 0
-49 8 0
-49 -2 0
49 -8 2 0
-50 7 0
-50 -2 0
50 -7 2 0
-51 14 0
-51 -2 0
51 -14 2 0
52 -49 0
52 -50 0
52 -51 0
-52 49 50 51 0
-14 52 0
14 -52 0
-53 7 0
-53 15 0
53 -7 -15 0
54 5 0
54 6 0
-54 -5 -6 0
-55 1 0
-55 54 0
-55 -3 0
55 -1 -54 3 0
56 -53 0
56 -55 0
-56 53 55 0
-15 56 0
15 -56 0
-57 10 0
-57 -7 0
57 -10 7 0
-58 16 0
-58 -7 0
58 -16 7 0
-59 9 0
-59 -7 0
59 -9 7 0
60 -57 0
60 -58 0
60 -59 0
-60 57 58 59 0
-16 60 0
16 -60 0
-61 4 0
-61 15 0
61 -4 -15 0
-62 15 0
-62 -7 0
62 -15 7 0
63 -61 0
63 -62 0
-63 61 62 0
-17 63 0
17 -63 0
-18 16 0
18 -16 0
