p cnf 83 225
-34 20 0
-34 28 0
34 -20 -28 0
-35 5 0
-35 4 0
-35 34 0
35 -5 -4 -34 0
-36 19 0
-36 35 0
36 -19 -35 0
-37 20 0
-37 28 0
-37 4 0
37 -20 -28 -4 0
-38 2 0
-38 37 0
38 -2 -37 0
39 -36 0
39 -38 0
-39 36 38 0
-1 39 0
1 -39 0
-40 18 0
-40 4 0
40 -18 -4 0
-41 19 0
-41 4 0
41 -19 -4 0
42 -40 0
42 -41 0
-42 40 41 0
-2 42 0
2 -42 0
43 -25 0
43 -3 0
-43 25 3 0
-3 43 0
3 -43 0
-44 4 0
-44 -23 0
44 -4 23 0
-4 44 0
4 -44 0
-45 4 0
-45 -22 0
45 -4 22 0
-46 19 0
-46 2 0
46 -19 -2 0
47 -45 0
47 -46 0
-47 45 46 0
-5 47 0
5 -47 0
-48 10 0
-48 4 0
48 -10 -4 0
-49 24 0
-49 4 0
49 -24 -4 0
50 -48 0
50 -49 0
-50 48 49 0
-6 50 0
6 -50 0
-7 6 0
7 -6 0
-51 21 0
-51 26 0
51 -21 -26 0
-8 51 0
8 -51 0
-9 4 0
9 -4 0
-52 6 0
-52 -16 0
52 -6 16 0
-53 20 0
-53 -16 0
53 -20 16 0
54 -12 0
54 -16 0
-54 12 16 0
-55 28 0
-55 -54 0
55 -28 54 0
56 -52 0
56 -53 0
56 -55 0
-56 52 53 55 0
-10 56 0
10 -56 0
-11 10 0
11 -10 0
-57 30 0
-57 26 0
57 -30 -26 0
58 -57 0
58 -32 0
58 -20 0
-58 57 32 20 0
-12 58 0
12 -58 0
-13 12 0
13 -12 0
-59 7 0
-59 25 0
-59 -17 0
59 -7 -25 17 0
-14 59 0
14 -59 0
-60 7 0
-60 25 0
-60 -17 0
60 -7 -25 17 0
-15 60 0
15 -60 0
-16 17 0
16 -17 0
61 -15 0
61 -11 0
-61 15 11 0
-62 31 0
-62 -61 0
62 -31 61 0
63 -15 0
63 -11 0
-63 15 11 0
-64 7 0
-64 25 0
-64 -63 0
64 -7 -25 63 0
65 -62 0
65 -64 0
-65 62 64 0
-17 65 0
17 -65 0
-66 18 0
-66 4 0
66 -18 -4 0
-67 3 0
-67 4 0
67 -3 -4 0
68 -66 0
68 -67 0
-68 66 67 0
-18 68 0
18 -68 0
69 -19 0
69 -3 0
-69 19 3 0
-19 69 0
19 -69 0
-70 10 0
-70 4 0
70 -10 -4 0
-71 24 0
-71 4 0
71 -24 -4 0
72 -70 0
72 -71 0
-72 70 71 0
-20 72 0
20 -72 0
-21 24 0
21 -24 0
-22 4 0
22 -4 0
-73 1 0
-73 4 0
73 -1 -4 0
-23 73 0
23 -73 0
-74 8 0
-74 -12 0
74 -8 12 0
-75 9 0
-75 -12 0
75 -9 12 0
-76 1 0
-76 -12 0
76 -1 12 0
77 -74 0
77 -75 0
77 -76 0
-77 74 75 76 0
-24 77 0
24 -77 0
-25 7 0
25 -7 0
78 -18 0
78 -19 0
-78 18 19 0
-79 4 0
-79 -78 0
79 -4 78 0
-26 79 0
26 -79 0
-27 26 0
27 -26 0
-28 29 0
28 -29 0
-80 15 0
-80 25 0
80 -15 -25 0
-81 7 0
-81 80 0
81 -7 -80 0
-29 81 0
29 -81 0
-30 31 0
30 -31 0
-82 7 0
-82 25 0
-82 -15 0
82 -7 -25 15 0
-31 82 0
31 -82 0
-32 33 0
32 -33 0
-83 7 0
-83 25 0
83 -7 -25 0
-33 83 0
33 -83 0
