p cnf 95 292
-20 9 0
-20 18 0
-20 11 0
20 -9 -18 -11 0
-21 9 0
-21 11 0
21 -9 -11 0
22 -20 0
22 -21 0
-22 20 21 0
-23 10 0
-23 3 0
23 -10 -3 0
-24 14 0
-24 22 0
-24 -23 0
24 -14 -22 23 0
-1 24 0
1 -24 0
-25 17 0
-25 3 0
25 -17 -3 0
-26 10 0
-26 25 0
26 -10 -25 0
-27 16 0
-27 -26 0
27 -16 26 0
-2 27 0
2 -27 0
-28 14 0
-28 1 0
28 -14 -1 0
29 -15 0
29 -28 0
-29 15 28 0
-30 13 0
-30 -29 0
30 -13 29 0
-31 14 0
-31 1 0
31 -14 -1 0
32 -15 0
32 -31 0
-32 15 31 0
-33 17 0
-33 -32 0
33 -17 32 0
34 -30 0
34 -33 0
-34 30 33 0
-3 34 0
3 -34 0
-4 14 0
4 -14 0
35 -15 0
35 -14 0
-35 15 14 0
-5 35 0
5 -35 0
-36 14 0
-36 -8 0
36 -14 8 0
-37 15 0
-37 -8 0
37 -15 8 0
38 -36 0
38 -37 0
-38 36 37 0
-6 38 0
6 -38 0
-39 14 0
-39 -17 0
39 -14 17 0
-7 39 0
7 -39 0
40 -14 0
40 -6 0
-40 14 6 0
-41 17 0
-41 3 0
-41 -40 0
41 -17 -3 40 0
-8 41 0
8 -41 0
42 -15 0
42 -16 0
42 -17 0
42 -11 0
-42 15 16 17 11 0
-9 42 0
9 -42 0
-43 11 0
-43 14 0
43 -11 -14 0
-44 18 0
-44 -43 0
44 -18 43 0
-45 11 0
-45 14 0
45 -11 -14 0
-46 17 0
-46 3 0
-46 -45 0
46 -17 -3 45 0
47 -44 0
47 -46 0
-47 44 46 0
-10 47 0
10 -47 0
-48 10 0
-48 17 0
48 -10 -17 0
-49 9 0
-49 -48 0
49 -9 48 0
-50 10 0
-50 17 0
50 -10 -17 0
-51 16 0
-51 -50 0
51 -16 50 0
-52 10 0
-52 17 0
52 -10 -17 0
-53 2 0
-53 -52 0
53 -2 52 0
-54 10 0
-54 17 0
54 -10 -17 0
-55 18 0
-55 -54 0
55 -18 54 0
56 -49 0
56 -51 0
56 -53 0
56 -55 0
-56 49 51 53 55 0
-11 56 0
11 -56 0
-12 14 0
12 -14 0
-57 17 0
-57 -5 0
57 -17 5 0
-58 3 0
-58 -5 0
58 -3 5 0
59 -57 0
59 -58 0
-59 57 58 0
-13 59 0
13 -59 0
-60 15 0
-60 11 0
60 -15 -11 0
61 -3 0
61 -8 0
61 -17 0
-61 3 8 17 0
-62 9 0
-62 60 0
-62 -61 0
62 -9 -60 61 0
63 -3 0
63 -8 0
63 -17 0
-63 3 8 17 0
-64 2 0
-64 15 0
-64 -63 0
64 -2 -15 63 0
65 -3 0
65 -8 0
65 -17 0
-65 3 8 17 0
-66 7 0
-66 14 0
-66 -65 0
66 -7 -14 65 0
67 -3 0
67 -8 0
67 -17 0
-67 3 8 17 0
-68 12 0
-68 -67 0
68 -12 67 0
69 -3 0
69 -8 0
69 -17 0
-69 3 8 17 0
-70 15 0
-70 -69 0
70 -15 69 0
71 -62 0
71 -64 0
71 -66 0
71 -68 0
71 -70 0
-71 62 64 66 68 70 0
-14 71 0
14 -71 0
-72 11 0
-72 2 0
-72 19 0
72 -11 -2 -19 0
-73 9 0
-73 72 0
-73 -3 0
73 -9 -72 3 0
-74 15 0
-74 -3 0
74 -15 3 0
-75 18 0
-75 11 0
75 -18 -11 0
-76 2 0
-76 75 0
-76 -3 0
76 -2 -75 3 0
-77 14 0
-77 -3 0
77 -14 3 0
78 -73 0
78 -74 0
78 -76 0
78 -77 0
-78 73 74 76 77 0
-15 78 0
15 -78 0
79 -11 0
79 -17 0
-79 11 17 0
-80 16 0
-80 -79 0
80 -16 79 0
-16 80 0
16 -80 0
81 -7 0
81 -5 0
-81 7 5 0
-82 9 0
-82 -81 0
82 -9 81 0
83 -7 0
83 -5 0
-83 7 5 0
-84 3 0
-84 -83 0
84 -3 83 0
85 -7 0
85 -5 0
-85 7 5 0
-86 13 0
-86 -85 0
86 -13 85 0
87 -7 0
87 -5 0
-87 7 5 0
-88 10 0
-88 -87 0
88 -10 87 0
89 -82 0
89 -84 0
89 -86 0
89 -88 0
-89 82 84 86 88 0
-17 89 0
17 -89 0
90 -16 0
90 -9 0
-90 16 9 0
-18 90 0
18 -90 0
-91 17 0
-91 3 0
91 -17 -3 0
-92 16 0
-92 -91 0
92 -16 91 0
-93 17 0
-93 3 0
93 -17 -3 0
-94 9 0
-94 -93 0
94 -9 93 0
95 -92 0
95 -94 0
-95 92 94 0
-19 95 0
19 -95 0
