p cnf 72 227
-16 12 0
-16 -14 0
16 -12 14 0
-17 13 0
-17 -14 0
17 -13 14 0
-18 12 0
-18 13 0
-18 -14 0
18 -12 -13 14 0
19 -16 0
19 -17 0
19 -18 0
-19 16 17 18 0
-1 19 0
1 -19 0
20 -8 0
20 -4 0
-20 8 4 0
-21 3 0
-21 -20 0
21 -3 20 0
22 -8 0
22 -4 0
-22 8 4 0
-23 5 0
-23 -22 0
23 -5 22 0
24 -21 0
24 -23 0
-24 21 23 0
-2 24 0
2 -24 0
-25 10 0
-25 -4 0
25 -10 4 0
-26 2 0
-26 -4 0
26 -2 4 0
27 -25 0
27 -26 0
-27 25 26 0
-3 27 0
3 -27 0
-28 14 0
-28 -5 0
28 -14 5 0
-29 9 0
-29 -5 0
29 -9 5 0
-30 6 0
-30 -5 0
30 -6 5 0
-31 11 0
-31 -5 0
31 -11 5 0
32 -10 0
32 -11 0
32 -6 0
32 -1 0
32 -4 0
32 -5 0
32 -9 0
32 -14 0
-32 10 11 6 1 4 5 9 14 0
33 -28 0
33 -29 0
33 -30 0
33 -31 0
33 32 0
-33 28 29 30 31 -32 0
-4 33 0
4 -33 0
34 -6 0
34 -9 0
34 -11 0
-34 6 9 11 0
-35 12 0
-35 -34 0
35 -12 34 0
36 -6 0
36 -9 0
36 -11 0
-36 6 9 11 0
-37 13 0
-37 -36 0
37 -13 36 0
38 -35 0
38 -37 0
-38 35 37 0
-5 38 0
5 -38 0
-39 11 0
-39 4 0
39 -11 -4 0
-40 7 0
-40 5 0
-40 -39 0
40 -7 -5 39 0
-6 40 0
6 -40 0
41 -2 0
41 -3 0
-41 2 3 0
-42 5 0
-42 41 0
42 -5 -41 0
43 -2 0
43 -3 0
-43 2 3 0
44 -42 0
44 -43 0
-44 42 43 0
-45 8 0
-45 44 0
-45 -4 0
45 -8 -44 4 0
-7 45 0
7 -45 0
46 -2 0
46 -3 0
-46 2 3 0
-47 10 0
-47 46 0
-47 -4 0
47 -10 -46 4 0
-8 47 0
8 -47 0
-48 13 0
-48 5 0
48 -13 -5 0
49 -11 0
49 -4 0
49 -6 0
-49 11 4 6 0
-50 14 0
-50 48 0
-50 -49 0
50 -14 -48 49 0
-51 10 0
-51 11 0
-51 5 0
51 -10 -11 -5 0
52 -4 0
52 -6 0
-52 4 6 0
-53 13 0
-53 51 0
-53 -52 0
53 -13 -51 52 0
54 -50 0
54 -53 0
-54 50 53 0
-9 54 0
9 -54 0
-55 10 0
-55 -5 0
55 -10 5 0
-10 55 0
10 -55 0
56 -9 0
56 -6 0
56 -4 0
-56 9 6 4 0
-57 13 0
-57 5 0
-57 -56 0
57 -13 -5 56 0
-11 57 0
11 -57 0
-58 7 0
-58 10 0
58 -7 -10 0
-12 58 0
12 -58 0
59 -2 0
59 -3 0
-59 2 3 0
-60 8 0
-60 7 0
60 -8 -7 0
-61 10 0
-61 59 0
-61 -60 0
61 -10 -59 60 0
-62 10 0
-62 15 0
62 -10 -15 0
-63 8 0
-63 7 0
63 -8 -7 0
-64 12 0
-64 62 0
-64 -63 0
64 -12 -62 63 0
65 -61 0
65 -64 0
-65 61 64 0
-13 65 0
13 -65 0
-66 8 0
-66 1 0
-66 -4 0
66 -8 -1 4 0
-67 1 0
-67 -4 0
67 -1 4 0
68 -66 0
68 -67 0
-68 66 67 0
-14 68 0
14 -68 0
-69 11 0
-69 -4 0
69 -11 4 0
-70 2 0
-70 -4 0
70 -2 4 0
-71 3 0
-71 -4 0
71 -3 4 0
72 -69 0
72 -70 0
72 -71 0
-72 69 70 71 0
-15 72 0
15 -72 0
