p cnf 113 400
-15 12 0
-15 -9 0
15 -12 9 0
-16 11 0
-16 -9 0
16 -11 9 0
17 -9 0
17 -13 0
-17 9 13 0
-18 6 0
-18 -17 0
18 -6 17 0
19 -15 0
19 -16 0
19 -18 0
-19 15 16 18 0
-1 19 0
1 -19 0
-20 5 0
-20 -10 0
20 -5 10 0
21 13 0
21 -20 0
-21 -13 20 0
-22 7 0
-22 21 0
-22 -8 0
22 -7 -21 8 0
23 -12 0
23 -22 0
23 -11 0
-23 12 22 11 0
-2 23 0
2 -23 0
-24 11 0
-24 -1 0
24 -11 1 0
-25 12 0
-25 -1 0
25 -12 1 0
26 -24 0
26 -25 0
-26 24 25 0
-3 26 0
3 -26 0
-27 11 0
-27 -1 0
27 -11 1 0
-28 5 0
-28 -10 0
28 -5 10 0
29 -28 0
29 13 0
-29 28 -13 0
30 -1 0
30 -8 0
-30 1 8 0
-31 7 0
-31 29 0
-31 -30 0
31 -7 -29 30 0
-32 12 0
-32 -1 0
32 -12 1 0
33 -27 0
33 -31 0
33 -32 0
-33 27 31 32 0
-4 33 0
4 -33 0
-5 -14 0
5 14 0
-34 -8 0
-34 -3 0
-34 -6 0
34 8 3 6 0
-35 2 0
-35 34 0
35 -2 -34 0
-36 -8 0
-36 -2 0
-36 -6 0
36 8 2 6 0
-37 3 0
-37 36 0
37 -3 -36 0
-38 2 0
-38 3 0
38 -2 -3 0
-39 6 0
-39 -38 0
39 -6 38 0
40 -8 0
40 -2 0
40 -3 0
40 -6 0
-40 8 2 3 6 0
41 -35 0
41 -37 0
41 -39 0
41 40 0
-41 35 37 39 -40 0
-6 41 0
6 -41 0
-42 6 0
-42 -13 0
42 -6 13 0
-7 42 0
7 -42 0
-43 14 0
-43 5 0
-43 -10 0
43 -14 -5 10 0
-44 11 0
-44 -43 0
44 -11 43 0
-45 14 0
-45 5 0
-45 -10 0
45 -14 -5 10 0
46 -13 0
46 -45 0
-46 13 45 0
-47 6 0
-47 -46 0
47 -6 46 0
48 -44 0
48 -47 0
-48 44 47 0
-8 48 0
8 -48 0
-49 -10 0
-49 5 0
49 10 -5 0
50 13 0
50 -49 0
-50 -13 49 0
-51 7 0
-51 50 0
51 -7 -50 0
-52 -10 0
-52 -12 0
-52 -8 0
-52 -7 0
-52 -13 0
52 10 12 8 7 13 0
-53 5 0
-53 52 0
53 -5 -52 0
-54 -10 0
-54 -12 0
-54 -8 0
-54 -5 0
-54 -7 0
54 10 12 8 5 7 0
-55 13 0
-55 54 0
55 -13 -54 0
-56 7 0
-56 13 0
56 -7 -13 0
-57 -10 0
-57 -12 0
-57 -8 0
57 10 12 8 0
-58 5 0
-58 56 0
-58 57 0
58 -5 -56 -57 0
-59 10 0
-59 7 0
59 -10 -7 0
-60 -12 0
-60 -8 0
-60 -13 0
60 12 8 13 0
-61 5 0
-61 59 0
-61 60 0
61 -5 -59 -60 0
-62 -12 0
-62 -8 0
-62 -7 0
-62 -13 0
62 12 8 7 13 0
-63 5 0
-63 10 0
-63 62 0
63 -5 -10 -62 0
-64 -12 0
-64 -8 0
-64 -5 0
-64 -7 0
-64 -13 0
64 12 8 5 7 13 0
-65 10 0
-65 64 0
65 -10 -64 0
-66 -12 0
-66 -8 0
-66 -5 0
-66 -7 0
66 12 8 5 7 0
-67 13 0
-67 10 0
-67 66 0
67 -13 -10 -66 0
-68 -10 0
-68 -12 0
-68 -8 0
-68 -7 0
68 10 12 8 7 0
-69 5 0
-69 13 0
-69 68 0
69 -5 -13 -68 0
-70 10 0
-70 13 0
70 -10 -13 0
-71 -12 0
-71 -8 0
-71 -5 0
71 12 8 5 0
-72 7 0
-72 70 0
-72 71 0
72 -7 -70 -71 0
-73 10 0
-73 8 0
73 -10 -8 0
-74 -12 0
-74 -5 0
-74 -13 0
74 12 5 13 0
-75 7 0
-75 73 0
-75 74 0
75 -7 -73 -74 0
-76 10 0
-76 7 0
-76 13 0
76 -10 -7 -13 0
-77 -12 0
-77 -8 0
77 12 8 0
-78 5 0
-78 76 0
-78 77 0
78 -5 -76 -77 0
-79 -12 0
-79 -8 0
-79 -5 0
-79 -13 0
79 12 8 5 13 0
-80 7 0
-80 10 0
-80 79 0
80 -7 -10 -79 0
-81 -10 0
-81 -12 0
-81 -8 0
-81 -5 0
-81 -13 0
81 10 12 8 5 13 0
-82 7 0
-82 81 0
82 -7 -81 0
-83 10 0
-83 13 0
83 -10 -13 0
-84 -12 0
-84 -8 0
-84 -7 0
84 12 8 7 0
-85 5 0
-85 83 0
-85 84 0
85 -5 -83 -84 0
-86 -10 0
-86 -12 0
-86 -8 0
-86 -5 0
86 10 12 8 5 0
-87 7 0
-87 13 0
-87 86 0
87 -7 -13 -86 0
88 -10 0
88 -12 0
88 -8 0
88 -5 0
88 -7 0
88 -13 0
-88 10 12 8 5 7 13 0
89 -51 0
89 -12 0
89 -53 0
89 -55 0
89 -58 0
89 -61 0
89 -63 0
89 -65 0
89 -67 0
89 -69 0
89 -72 0
89 -75 0
89 -78 0
89 -80 0
89 -82 0
89 -85 0
89 -87 0
89 88 0
-89 51 12 53 55 58 61 63 65 67 69 72 75 78 80 82 85 87 -88 0
-9 89 0
9 -89 0
-90 3 0
-90 14 0
90 -3 -14 0
-91 2 0
-91 90 0
91 -2 -90 0
-92 12 0
-92 -91 0
92 -12 91 0
-93 3 0
-93 14 0
93 -3 -14 0
-94 2 0
-94 93 0
94 -2 -93 0
-95 11 0
-95 -94 0
95 -11 94 0
96 -92 0
96 -95 0
-96 92 95 0
-10 96 0
10 -96 0
-97 11 0
-97 4 0
-97 -10 0
97 -11 -4 10 0
98 -12 0
98 -97 0
-98 12 97 0
-11 98 0
11 -98 0
-99 5 0
-99 -10 0
99 -5 10 0
100 -99 0
100 13 0
-100 99 -13 0
-101 7 0
-101 100 0
101 -7 -100 0
-12 101 0
12 -101 0
102 -10 0
102 5 0
-102 10 -5 0
103 -10 0
103 5 0
-103 10 -5 0
-104 13 0
-104 103 0
104 -13 -103 0
-105 6 0
-105 102 0
-105 -104 0
105 -6 -102 104 0
106 -10 0
106 5 0
-106 10 -5 0
-107 11 0
-107 106 0
107 -11 -106 0
108 -105 0
108 -107 0
-108 105 107 0
-13 108 0
13 -108 0
-109 11 0
-109 -1 0
109 -11 1 0
-110 5 0
-110 -10 0
110 -5 10 0
111 13 0
111 -110 0
-111 -13 110 0
-112 7 0
-112 111 0
-112 -1 0
112 -7 -111 1 0
113 -109 0
113 -112 0
-113 109 112 0
-14 113 0
14 -113 0
