p cnf 382 1140
48 -10 0
48 -8 0
48 -12 0
-48 10 8 12 0
-49 1 0
-49 48 0
49 -1 -48 0
-50 35 0
-50 -49 0
50 -35 49 0
51 -10 0
51 -8 0
51 -12 0
-51 10 8 12 0
-52 1 0
-52 51 0
52 -1 -51 0
-53 28 0
-53 -52 0
53 -28 52 0
54 -39 0
54 -15 0
-54 39 15 0
-55 54 0
-55 -2 0
55 -54 2 0
56 -10 0
56 -8 0
56 -12 0
-56 10 8 12 0
-57 1 0
-57 56 0
57 -1 -56 0
-58 1 0
-58 55 0
-58 -57 0
58 -1 -55 57 0
59 -10 0
59 -8 0
59 -12 0
-59 10 8 12 0
-60 1 0
-60 59 0
60 -1 -59 0
-61 26 0
-61 -60 0
61 -26 60 0
62 -58 0
62 -61 0
-62 58 61 0
63 -53 0
63 -62 0
-63 53 62 0
64 -50 0
64 -63 0
-64 50 63 0
-1 64 0
1 -64 0
65 -39 0
65 -15 0
-65 39 15 0
-66 1 0
-66 65 0
66 -1 -65 0
-2 66 0
2 -66 0
-67 20 0
-67 19 0
67 -20 -19 0
68 -10 0
68 -67 0
-68 10 67 0
69 -8 0
69 -68 0
-69 8 68 0
-70 3 0
-70 69 0
70 -3 -69 0
-71 28 0
-71 -70 0
71 -28 70 0
-72 20 0
-72 19 0
72 -20 -19 0
73 -10 0
73 -72 0
-73 10 72 0
74 -8 0
74 -73 0
-74 8 73 0
-75 3 0
-75 74 0
75 -3 -74 0
-76 35 0
-76 -75 0
76 -35 75 0
-77 20 0
-77 19 0
77 -20 -19 0
78 -10 0
78 -77 0
-78 10 77 0
79 -8 0
79 -78 0
-79 8 78 0
-80 3 0
-80 79 0
80 -3 -79 0
-81 26 0
-81 -80 0
81 -26 80 0
82 -76 0
82 -81 0
-82 76 81 0
83 -71 0
83 -82 0
-83 71 82 0
-3 83 0
3 -83 0
-84 4 0
-84 12 0
84 -4 -12 0
-85 37 0
-85 -84 0
85 -37 84 0
-86 4 0
-86 12 0
86 -4 -12 0
-87 38 0
-87 -86 0
87 -38 86 0
-88 4 0
-88 12 0
88 -4 -12 0
-89 33 0
-89 -88 0
89 -33 88 0
90 -87 0
90 -89 0
-90 87 89 0
91 -85 0
91 -90 0
-91 85 90 0
-4 91 0
4 -91 0
92 -16 0
92 -33 0
-92 16 33 0
93 -21 0
93 -92 0
-93 21 92 0
-5 93 0
5 -93 0
94 -13 0
94 -11 0
-94 13 11 0
-95 6 0
-95 94 0
95 -6 -94 0
-96 19 0
-96 -95 0
96 -19 95 0
97 -14 0
97 -24 0
-97 14 24 0
98 -36 0
98 -97 0
-98 36 97 0
99 -13 0
99 -11 0
-99 13 11 0
-100 6 0
-100 99 0
100 -6 -99 0
-101 27 0
-101 98 0
-101 -100 0
101 -27 -98 100 0
102 -96 0
102 -101 0
-102 96 101 0
-6 102 0
6 -102 0
103 35 0
103 26 0
-103 -35 -26 0
-104 4 0
-104 103 0
104 -4 -103 0
105 -31 0
105 -104 0
-105 31 104 0
106 -3 0
106 -105 0
-106 3 105 0
107 -32 0
107 -106 0
-107 32 106 0
-7 107 0
7 -107 0
-108 39 0
-108 -9 0
108 -39 9 0
-109 8 0
-109 108 0
-109 -36 0
109 -8 -108 36 0
-110 26 0
-110 -36 0
110 -26 36 0
-111 35 0
-111 -36 0
111 -35 36 0
-112 28 0
-112 -36 0
112 -28 36 0
113 -111 0
113 -112 0
-113 111 112 0
114 -110 0
114 -113 0
-114 110 113 0
115 -109 0
115 -114 0
-115 109 114 0
-8 115 0
8 -115 0
-116 8 0
-116 39 0
116 -8 -39 0
-9 116 0
9 -116 0
117 -26 0
117 -28 0
-117 26 28 0
118 -35 0
118 -117 0
-118 35 117 0
-119 3 0
-119 118 0
119 -3 -118 0
-10 119 0
10 -119 0
120 -26 0
120 -28 0
-120 26 28 0
121 -35 0
121 -120 0
-121 35 120 0
122 -36 0
122 -12 0
-122 36 12 0
-123 11 0
-123 122 0
123 -11 -122 0
-124 43 0
-124 121 0
-124 -123 0
-124 -45 0
124 -43 -121 123 45 0
125 -36 0
125 -12 0
-125 36 12 0
-126 11 0
-126 125 0
126 -11 -125 0
-127 42 0
-127 -126 0
-127 -45 0
127 -42 126 45 0
128 -40 0
128 -27 0
-128 40 27 0
-129 13 0
-129 128 0
129 -13 -128 0
130 -36 0
130 -12 0
-130 36 12 0
-131 11 0
-131 130 0
131 -11 -130 0
-132 17 0
-132 129 0
-132 -131 0
-132 -45 0
132 -17 -129 131 45 0
133 -26 0
133 -28 0
-133 26 28 0
134 -35 0
134 -133 0
-134 35 133 0
-135 134 0
-135 31 0
135 -134 -31 0
136 -36 0
136 -12 0
-136 36 12 0
-137 11 0
-137 136 0
137 -11 -136 0
-138 23 0
-138 135 0
-138 -137 0
-138 -45 0
138 -23 -135 137 45 0
139 -10 0
139 -8 0
-139 10 8 0
140 -36 0
140 -12 0
-140 36 12 0
-141 11 0
-141 140 0
141 -11 -140 0
-142 32 0
-142 139 0
-142 -141 0
-142 -45 0
142 -32 -139 141 45 0
143 -10 0
143 -8 0
-143 10 8 0
144 -36 0
144 -12 0
-144 36 12 0
-145 11 0
-145 144 0
145 -11 -144 0
-146 3 0
-146 143 0
-146 -145 0
-146 -45 0
146 -3 -143 145 45 0
147 -142 0
147 -146 0
-147 142 146 0
148 -138 0
148 -147 0
-148 138 147 0
149 -132 0
149 -148 0
-149 132 148 0
150 -127 0
150 -149 0
-150 127 149 0
151 -124 0
151 -150 0
-151 124 150 0
-11 151 0
11 -151 0
-152 4 0
-152 26 0
152 -4 -26 0
-153 -27 0
-153 -11 0
153 27 11 0
-154 30 0
-154 153 0
154 -30 -153 0
-155 37 0
-155 154 0
155 -37 -154 0
-156 26 0
-156 -24 0
156 -26 24 0
-157 27 0
-157 156 0
157 -27 -156 0
-158 45 0
-158 -23 0
158 -45 23 0
159 -157 0
159 -158 0
-159 157 158 0
160 -155 0
160 -159 0
-160 155 159 0
161 -152 0
161 -160 0
-161 152 160 0
162 -47 0
162 -161 0
-162 47 161 0
-12 162 0
12 -162 0
-163 27 0
-163 35 0
163 -27 -35 0
164 -163 0
164 -4 0
-164 163 4 0
-165 11 0
-165 164 0
165 -11 -164 0
-166 26 0
-166 165 0
166 -26 -165 0
167 -4 0
167 -27 0
-167 4 27 0
-168 30 0
-168 167 0
168 -30 -167 0
-169 37 0
-169 168 0
169 -37 -168 0
170 -166 0
170 -169 0
-170 166 169 0
-13 170 0
13 -170 0
-14 45 0
14 -45 0
171 -26 0
171 -28 0
-171 26 28 0
172 -35 0
172 -171 0
-172 35 171 0
-173 6 0
-173 172 0
173 -6 -172 0
174 -11 0
174 -26 0
-174 11 26 0
-175 27 0
-175 174 0
175 -27 -174 0
176 -173 0
176 -175 0
-176 173 175 0
-15 176 0
15 -176 0
177 -26 0
177 -28 0
-177 26 28 0
178 -35 0
178 -177 0
-178 35 177 0
179 -36 0
179 -14 0
-179 36 14 0
-180 16 0
-180 179 0
180 -16 -179 0
-181 44 0
-181 178 0
-181 -180 0
181 -44 -178 180 0
182 -10 0
182 -8 0
-182 10 8 0
183 -36 0
183 -14 0
-183 36 14 0
-184 16 0
-184 183 0
184 -16 -183 0
-185 1 0
-185 182 0
-185 -184 0
185 -1 -182 184 0
186 -36 0
186 -14 0
-186 36 14 0
-187 16 0
-187 186 0
187 -16 -186 0
-188 43 0
-188 -187 0
188 -43 187 0
189 -185 0
189 -188 0
-189 185 188 0
190 -181 0
190 -189 0
-190 181 189 0
-16 190 0
16 -190 0
191 -4 0
191 -27 0
-191 4 27 0
-192 30 0
-192 191 0
192 -30 -191 0
-193 26 0
-193 192 0
193 -26 -192 0
-17 193 0
17 -193 0
-194 30 0
-194 26 0
194 -30 -26 0
-195 12 0
-195 18 0
195 -12 -18 0
-196 27 0
-196 194 0
-196 -195 0
196 -27 -194 195 0
-197 30 0
-197 26 0
197 -30 -26 0
-198 12 0
-198 18 0
198 -12 -18 0
-199 4 0
-199 197 0
-199 -198 0
199 -4 -197 198 0
200 -196 0
200 -199 0
-200 196 199 0
-18 200 0
18 -200 0
201 -26 0
201 -28 0
-201 26 28 0
202 -35 0
202 -201 0
-202 35 201 0
-203 41 0
-203 202 0
203 -41 -202 0
204 -40 0
204 -4 0
-204 40 4 0
205 -203 0
205 -204 0
-205 203 204 0
-19 205 0
19 -205 0
-206 40 0
-206 25 0
-206 -11 0
-206 -24 0
-206 -36 0
206 -40 -25 11 24 36 0
207 -206 0
207 -43 0
-207 206 43 0
-20 207 0
20 -207 0
-208 31 0
-208 23 0
208 -31 -23 0
-209 20 0
-209 -22 0
209 -20 22 0
-210 21 0
-210 209 0
210 -21 -209 0
-211 40 0
-211 210 0
-211 -36 0
211 -40 -210 36 0
-212 17 0
-212 13 0
212 -17 -13 0
-213 31 0
-213 212 0
213 -31 -212 0
214 -1 0
214 -213 0
-214 1 213 0
215 -211 0
215 -214 0
-215 211 214 0
216 -208 0
216 -215 0
-216 208 215 0
217 -43 0
217 -216 0
-217 43 216 0
-21 217 0
21 -217 0
-218 20 0
-218 21 0
218 -20 -21 0
-219 40 0
-219 218 0
219 -40 -218 0
-22 219 0
22 -219 0
-220 27 0
-220 18 0
220 -27 -18 0
221 -220 0
221 -4 0
-221 220 4 0
-23 221 0
23 -221 0
-24 45 0
24 -45 0
222 -35 0
222 -26 0
-222 35 26 0
-223 4 0
-223 222 0
223 -4 -222 0
-224 27 0
-224 35 0
224 -27 -35 0
-225 43 0
-225 23 0
225 -43 -23 0
226 12 0
226 24 0
-226 -12 -24 0
-227 30 0
-227 226 0
227 -30 -226 0
228 -225 0
228 -227 0
-228 225 227 0
229 -224 0
229 -228 0
-229 224 228 0
230 -223 0
230 -229 0
-230 223 229 0
-25 230 0
25 -230 0
231 -5 0
231 -34 0
-231 5 34 0
232 -7 0
232 -231 0
-232 7 231 0
-26 -232 0
26 232 0
-233 27 0
-233 12 0
233 -27 -12 0
-234 33 0
-234 -233 0
234 -33 233 0
-235 27 0
-235 12 0
235 -27 -12 0
-236 11 0
-236 -235 0
236 -11 235 0
-237 27 0
-237 12 0
237 -27 -12 0
-238 15 0
-238 -237 0
238 -15 237 0
-239 27 0
-239 12 0
239 -27 -12 0
-240 38 0
-240 -239 0
240 -38 239 0
-241 27 0
-241 12 0
241 -27 -12 0
-242 37 0
-242 -241 0
242 -37 241 0
243 -240 0
243 -242 0
-243 240 242 0
244 -238 0
244 -243 0
-244 238 243 0
245 -236 0
245 -244 0
-245 236 244 0
246 -234 0
246 -245 0
-246 234 245 0
-27 246 0
27 -246 0
247 -5 0
247 -7 0
-247 5 7 0
248 -34 0
248 -247 0
-248 34 247 0
-28 -248 0
28 248 0
249 -16 0
249 -18 0
-249 16 18 0
250 -20 0
250 -249 0
-250 20 249 0
251 -39 0
251 -250 0
-251 39 250 0
-252 6 0
-252 251 0
252 -6 -251 0
-253 27 0
-253 39 0
253 -27 -39 0
254 -252 0
254 -253 0
-254 252 253 0
-29 254 0
29 -254 0
255 -38 0
255 -37 0
-255 38 37 0
256 -33 0
256 -255 0
-256 33 255 0
-30 256 0
30 -256 0
-257 31 0
-257 47 0
257 -31 -47 0
-258 4 0
-258 15 0
-258 -257 0
258 -4 -15 257 0
-259 31 0
-259 47 0
259 -31 -47 0
-260 23 0
-260 -259 0
260 -23 259 0
-261 31 0
-261 47 0
261 -31 -47 0
-262 17 0
-262 12 0
-262 -261 0
262 -17 -12 261 0
263 -260 0
263 -262 0
-263 260 262 0
264 -258 0
264 -263 0
-264 258 263 0
-31 264 0
31 -264 0
-265 20 0
-265 13 0
265 -20 -13 0
-266 8 0
-266 265 0
266 -8 -265 0
-267 36 0
-267 266 0
267 -36 -266 0
-268 10 0
-268 267 0
268 -10 -267 0
-269 32 0
-269 268 0
269 -32 -268 0
-270 28 0
-270 -269 0
270 -28 269 0
-271 20 0
-271 13 0
271 -20 -13 0
-272 8 0
-272 271 0
272 -8 -271 0
-273 36 0
-273 272 0
273 -36 -272 0
-274 10 0
-274 273 0
274 -10 -273 0
-275 32 0
-275 274 0
275 -32 -274 0
-276 35 0
-276 -275 0
276 -35 275 0
-277 20 0
-277 13 0
277 -20 -13 0
-278 8 0
-278 277 0
278 -8 -277 0
-279 36 0
-279 278 0
279 -36 -278 0
-280 10 0
-280 279 0
280 -10 -279 0
-281 32 0
-281 280 0
281 -32 -280 0
-282 26 0
-282 -281 0
282 -26 281 0
283 -276 0
283 -282 0
-283 276 282 0
284 -270 0
284 -283 0
-284 270 283 0
-32 284 0
32 -284 0
-33 28 0
33 -28 0
285 -32 0
285 -31 0
-285 32 31 0
-34 285 0
34 -285 0
286 -5 0
286 -34 0
-286 5 34 0
287 -7 0
287 -286 0
-287 7 286 0
-35 -287 0
35 287 0
288 -47 0
288 -27 0
-288 47 27 0
-36 288 0
36 -288 0
-37 35 0
37 -35 0
-38 26 0
38 -26 0
-289 11 0
-289 26 0
289 -11 -26 0
290 -35 0
290 -289 0
-290 35 289 0
291 -19 0
291 -290 0
-291 19 290 0
292 -38 0
292 -37 0
-292 38 37 0
-293 39 0
-293 292 0
293 -39 -292 0
-294 12 0
-294 293 0
294 -12 -293 0
-295 27 0
-295 291 0
-295 -294 0
295 -27 -291 294 0
296 -10 0
296 -8 0
-296 10 8 0
297 -38 0
297 -37 0
-297 38 37 0
-298 39 0
-298 297 0
298 -39 -297 0
-299 12 0
-299 298 0
299 -12 -298 0
-300 3 0
-300 296 0
-300 -299 0
300 -3 -296 299 0
301 -38 0
301 -37 0
-301 38 37 0
-302 39 0
-302 301 0
302 -39 -301 0
-303 12 0
-303 302 0
303 -12 -302 0
-304 6 0
-304 11 0
-304 -303 0
304 -6 -11 303 0
305 -38 0
305 -37 0
-305 38 37 0
-306 39 0
-306 305 0
306 -39 -305 0
-307 12 0
-307 306 0
307 -12 -306 0
-308 30 0
-308 26 0
-308 -307 0
308 -30 -26 307 0
309 -10 0
309 -8 0
-309 10 8 0
310 -38 0
310 -37 0
-310 38 37 0
-311 39 0
-311 310 0
311 -39 -310 0
-312 12 0
-312 311 0
312 -12 -311 0
-313 1 0
-313 309 0
-313 -312 0
313 -1 -309 312 0
314 -26 0
314 -28 0
-314 26 28 0
315 -35 0
315 -314 0
-315 35 314 0
316 -15 0
316 -19 0
-316 15 19 0
317 -23 0
317 -316 0
-317 23 316 0
-318 315 0
-318 317 0
318 -315 -317 0
319 -38 0
319 -37 0
-319 38 37 0
-320 39 0
-320 319 0
320 -39 -319 0
-321 12 0
-321 320 0
321 -12 -320 0
-322 31 0
-322 318 0
-322 -321 0
322 -31 -318 321 0
323 -10 0
323 -8 0
-323 10 8 0
324 -38 0
324 -37 0
-324 38 37 0
-325 39 0
-325 324 0
325 -39 -324 0
-326 12 0
-326 325 0
326 -12 -325 0
-327 32 0
-327 323 0
-327 -326 0
327 -32 -323 326 0
328 -322 0
328 -327 0
-328 322 327 0
329 -313 0
329 -328 0
-329 313 328 0
330 -308 0
330 -329 0
-330 308 329 0
331 -304 0
331 -330 0
-331 304 330 0
332 -300 0
332 -331 0
-332 300 331 0
333 -295 0
333 -332 0
-333 295 332 0
-39 333 0
39 -333 0
334 -35 0
334 -26 0
-334 35 26 0
335 -28 0
335 -334 0
-335 28 334 0
-40 335 0
40 -335 0
336 -23 0
336 -13 0
-336 23 13 0
-337 40 0
-337 336 0
337 -40 -336 0
338 -41 0
338 -337 0
-338 41 337 0
-41 338 0
41 -338 0
339 -13 0
339 -11 0
-339 13 11 0
340 -17 0
340 -339 0
-340 17 339 0
341 -23 0
341 -16 0
-341 23 16 0
-342 13 0
-342 341 0
342 -13 -341 0
343 -45 0
343 -342 0
-343 45 342 0
344 -47 0
344 -343 0
-344 47 343 0
345 -12 0
345 -344 0
-345 12 344 0
346 -36 0
346 -345 0
-346 36 345 0
347 -24 0
347 -346 0
-347 24 346 0
-348 42 0
-348 347 0
348 -42 -347 0
-349 40 0
-349 340 0
-349 -348 0
349 -40 -340 348 0
-42 349 0
42 -349 0
350 -25 0
350 -18 0
-350 25 18 0
351 -23 0
351 -350 0
-351 23 350 0
352 -11 0
352 -24 0
-352 11 24 0
353 -47 0
353 -352 0
-353 47 352 0
354 -36 0
354 -353 0
-354 36 353 0
355 -13 0
355 -354 0
-355 13 354 0
-356 43 0
-356 355 0
356 -43 -355 0
-357 40 0
-357 351 0
-357 -356 0
357 -40 -351 356 0
-43 357 0
43 -357 0
358 -26 0
358 -28 0
-358 26 28 0
359 -35 0
359 -358 0
-359 35 358 0
-360 25 0
-360 18 0
360 -25 -18 0
361 -23 0
361 -19 0
-361 23 19 0
362 -360 0
362 -361 0
-362 360 361 0
-363 359 0
-363 362 0
363 -359 -362 0
-364 41 0
-364 363 0
364 -41 -363 0
365 -364 0
365 -44 0
-365 364 44 0
-44 365 0
44 -365 0
-366 45 0
-366 24 0
-366 -46 0
366 -45 -24 46 0
-367 17 0
-367 24 0
-367 -13 0
367 -17 -24 13 0
368 -367 0
368 -12 0
-368 367 12 0
369 -366 0
369 -368 0
-369 366 368 0
370 -47 0
370 -11 0
-370 47 11 0
371 -36 0
371 -370 0
-371 36 370 0
-372 45 0
-372 371 0
372 -45 -371 0
-373 40 0
-373 369 0
-373 -372 0
373 -40 -369 372 0
-45 373 0
45 -373 0
-374 45 0
-374 24 0
374 -45 -24 0
-46 374 0
46 -374 0
375 -36 0
375 -37 0
-375 36 37 0
376 -25 0
376 -43 0
-376 25 43 0
377 -20 0
377 -376 0
-377 20 376 0
378 -39 0
378 -377 0
-378 39 377 0
379 -23 0
379 -378 0
-379 23 378 0
380 -21 0
380 -379 0
-380 21 379 0
-381 47 0
-381 380 0
381 -47 -380 0
-382 40 0
-382 375 0
-382 -381 0
382 -40 -375 381 0
-47 382 0
47 -382 0
