p cnf 197 609
-84 -80 0
-84 52 0
84 80 -52 0
85 -84 0
85 -80 0
-85 84 80 0
-1 85 0
1 -85 0
-2 -1 0
2 1 0
-86 -26 0
-86 -3 0
-86 14 0
86 26 3 -14 0
-87 -26 0
-87 3 0
-87 -4 0
-87 14 0
87 26 -3 4 -14 0
-88 -26 0
-88 3 0
-88 4 0
88 26 -3 -4 0
89 -86 0
89 -87 0
89 -88 0
89 -26 0
-89 86 87 88 26 0
-3 89 0
3 -89 0
-90 -26 0
-90 3 0
-90 -4 0
-90 14 0
-90 15 0
90 26 -3 4 -14 -15 0
-91 -26 0
-91 3 0
-91 4 0
-91 -5 0
-91 14 0
-91 15 0
91 26 -3 -4 5 -14 -15 0
-92 -26 0
-92 3 0
-92 4 0
-92 5 0
92 26 -3 -4 -5 0
-93 26 0
-93 3 0
-93 -4 0
-93 14 0
93 -26 -3 4 -14 0
-94 26 0
-94 3 0
-94 4 0
-94 -5 0
-94 14 0
94 -26 -3 -4 5 -14 0
-95 26 0
-95 3 0
-95 4 0
-95 5 0
95 -26 -3 -4 -5 0
96 -90 0
96 -91 0
96 -92 0
96 -93 0
96 -94 0
96 -95 0
-96 90 91 92 93 94 95 0
-4 96 0
4 -96 0
-97 26 0
-97 3 0
-97 4 0
-97 14 0
-97 15 0
97 -26 -3 -4 -14 -15 0
-5 97 0
5 -97 0
-6 -38 0
6 38 0
-98 -1 0
-98 -59 0
98 1 59 0
-7 98 0
7 -98 0
-8 82 0
8 -82 0
-9 -7 0
9 7 0
-99 -59 0
-99 -74 0
-99 10 0
-99 11 0
99 59 74 -10 -11 0
-100 -59 0
-100 74 0
100 59 -74 0
101 -99 0
101 -100 0
101 -59 0
-101 99 100 59 0
-10 101 0
10 -101 0
-102 59 0
-102 74 0
-102 10 0
102 -59 -74 -10 0
-11 102 0
11 -102 0
-103 1 0
-103 -35 0
103 -1 35 0
-12 103 0
12 -103 0
-13 -38 0
13 38 0
-104 -16 0
-104 -17 0
-104 14 0
-104 15 0
104 16 17 -14 -15 0
-105 -16 0
-105 17 0
105 16 -17 0
106 -104 0
106 -105 0
106 -16 0
-106 104 105 16 0
-14 106 0
14 -106 0
-107 16 0
-107 17 0
-107 14 0
107 -16 -17 -14 0
-15 107 0
15 -107 0
-16 -12 0
16 12 0
-17 18 0
17 -18 0
-108 -9 0
-108 8 0
108 9 -8 0
-18 108 0
18 -108 0
-19 20 0
19 -20 0
-109 -78 0
-109 74 0
109 78 -74 0
-20 109 0
20 -109 0
-110 -81 0
-110 49 0
110 81 -49 0
111 -110 0
111 -81 0
-111 110 81 0
-21 111 0
21 -111 0
-112 -24 0
-112 79 0
112 24 -79 0
113 -112 0
113 -24 0
-113 112 24 0
-22 113 0
22 -113 0
-23 27 0
23 -27 0
-114 -42 0
-114 -22 0
114 42 22 0
115 -114 0
115 -42 0
-115 114 42 0
-24 115 0
24 -115 0
-25 -74 0
25 74 0
-116 -1 0
-116 -51 0
116 1 51 0
-26 116 0
26 -116 0
-27 -67 0
27 67 0
-117 30 0
-117 -24 0
117 -30 24 0
-28 117 0
28 -117 0
-29 -81 0
29 81 0
-30 69 0
30 -69 0
-118 -24 0
-118 -81 0
-118 -1 0
-118 -66 0
-118 -38 0
-118 -59 0
-118 -23 0
118 24 81 1 66 38 59 23 0
-31 118 0
31 -118 0
-32 1 0
32 -1 0
-119 73 0
-119 -82 0
119 -73 82 0
-33 119 0
33 -119 0
-120 -24 0
-120 -33 0
-120 -66 0
120 24 33 66 0
-34 120 0
34 -120 0
-35 36 0
35 -36 0
-121 -21 0
-121 -45 0
-121 46 0
121 21 45 -46 0
-122 -21 0
-122 45 0
122 21 -45 0
123 -121 0
123 -122 0
-123 121 122 0
-36 123 0
36 -123 0
-37 77 0
37 -77 0
-124 -24 0
-124 -81 0
-124 -36 0
-124 -19 0
-124 27 0
124 24 81 36 19 -27 0
-125 -24 0
-125 -81 0
-125 36 0
-125 -19 0
125 24 81 -36 19 0
-126 -24 0
-126 81 0
-126 -19 0
126 24 -81 19 0
-127 24 0
-127 -19 0
127 -24 19 0
128 -124 0
128 -125 0
128 -126 0
128 -127 0
-128 124 125 126 127 0
-38 128 0
38 -128 0
-39 33 0
39 -33 0
-129 -1 0
-129 41 0
-129 -66 0
129 1 -41 66 0
-130 1 0
-130 -66 0
130 -1 66 0
131 -129 0
131 -130 0
-131 129 130 0
-40 131 0
40 -131 0
-132 -82 0
-132 50 0
132 82 -50 0
133 -132 0
133 -82 0
-133 132 82 0
-41 133 0
41 -133 0
-134 -63 0
-134 -24 0
134 63 24 0
-135 -63 0
-135 24 0
-135 39 0
135 63 -24 -39 0
136 -134 0
136 -135 0
136 -63 0
-136 134 135 63 0
-42 136 0
42 -136 0
-43 62 0
43 -62 0
-137 -73 0
-137 2 0
137 73 -2 0
138 -137 0
138 -73 0
-138 137 73 0
-44 138 0
44 -138 0
-139 -73 0
-139 -43 0
-139 -47 0
-139 29 0
139 73 43 47 -29 0
-140 -73 0
-140 -43 0
-140 47 0
140 73 43 -47 0
-141 -73 0
-141 43 0
141 73 -43 0
142 -139 0
142 -140 0
142 -141 0
142 -73 0
-142 139 140 141 73 0
-45 142 0
45 -142 0
-143 -73 0
-143 29 0
143 73 -29 0
144 -143 0
144 -73 0
-144 143 73 0
-46 144 0
46 -144 0
-47 62 0
47 -62 0
-48 37 0
48 -37 0
-145 -24 0
-145 81 0
145 24 -81 0
146 -145 0
146 -24 0
-146 145 24 0
-49 146 0
49 -146 0
-147 -33 0
-147 -32 0
-147 49 0
147 33 32 -49 0
-148 -33 0
-148 32 0
148 33 -32 0
149 -147 0
149 -148 0
149 -33 0
-149 147 148 33 0
-50 149 0
50 -149 0
-51 73 0
51 -73 0
-150 -54 0
-150 53 0
150 54 -53 0
-52 150 0
52 -150 0
-151 -64 0
-151 -28 0
-151 34 0
151 64 28 -34 0
-152 -64 0
-152 28 0
152 64 -28 0
153 -151 0
153 -152 0
153 -64 0
-153 151 152 64 0
-53 153 0
53 -153 0
-154 55 0
-154 -31 0
154 -55 31 0
-54 154 0
54 -154 0
-55 25 0
55 -25 0
-155 -56 0
-155 -78 0
-155 10 0
155 56 78 -10 0
-156 -56 0
-156 78 0
156 56 -78 0
-157 56 0
-157 -57 0
-157 -78 0
-157 10 0
157 -56 57 78 -10 0
-158 56 0
-158 -57 0
-158 78 0
158 -56 57 -78 0
-159 56 0
-159 57 0
159 -56 -57 0
160 -155 0
160 -156 0
160 -157 0
160 -158 0
160 -159 0
-160 155 156 157 158 159 0
-56 160 0
56 -160 0
-161 56 0
-161 -57 0
-161 -78 0
-161 10 0
-161 11 0
161 -56 57 78 -10 -11 0
-162 56 0
-162 -57 0
-162 78 0
-162 10 0
162 -56 57 -78 -10 0
-163 56 0
-163 57 0
-163 -58 0
-163 -78 0
-163 10 0
-163 11 0
163 -56 -57 58 78 -10 -11 0
-164 56 0
-164 57 0
-164 -58 0
-164 78 0
-164 10 0
164 -56 -57 58 -78 -10 0
-165 56 0
-165 57 0
-165 58 0
165 -56 -57 -58 0
166 -161 0
166 -162 0
166 -163 0
166 -164 0
166 -165 0
-166 161 162 163 164 165 0
-57 166 0
57 -166 0
-167 56 0
-167 57 0
-167 78 0
-167 10 0
-167 11 0
167 -56 -57 -78 -10 -11 0
-58 167 0
58 -167 0
-168 24 0
-168 52 0
168 -24 -52 0
-59 168 0
59 -168 0
-169 -42 0
-169 -81 0
-169 -61 0
-169 48 0
169 42 81 61 -48 0
-170 -42 0
-170 -81 0
-170 61 0
170 42 81 -61 0
171 -169 0
171 -170 0
-171 169 170 0
-60 171 0
60 -171 0
-61 26 0
61 -26 0
-172 -80 0
-172 23 0
172 80 -23 0
173 -172 0
173 -80 0
-173 172 80 0
-62 173 0
62 -173 0
-174 -64 0
-174 -24 0
-174 -1 0
-174 -65 0
174 64 24 1 65 0
175 -174 0
175 -64 0
-175 174 64 0
-63 175 0
63 -175 0
-176 -71 0
-176 70 0
176 71 -70 0
177 -176 0
177 -71 0
-177 176 71 0
-64 177 0
64 -177 0
-65 -75 0
65 75 0
-178 -79 0
-178 52 0
178 79 -52 0
179 -178 0
179 -79 0
-179 178 79 0
-66 179 0
66 -179 0
-67 68 0
67 -68 0
-68 -78 0
68 78 0
-180 -60 0
-180 -54 0
180 60 54 0
181 -180 0
181 -60 0
-181 180 60 0
-69 181 0
69 -181 0
-70 28 0
70 -28 0
-182 -30 0
-182 -24 0
182 30 24 0
183 -182 0
183 -30 0
-183 182 30 0
-71 183 0
71 -183 0
-72 -81 0
72 81 0
-73 72 0
73 -72 0
-184 -77 0
-184 -51 0
184 77 51 0
185 -184 0
185 -77 0
-185 184 77 0
-74 185 0
74 -185 0
-186 -24 0
-186 -33 0
-186 -1 0
-186 31 0
-186 -59 0
186 24 33 1 -31 59 0
-75 186 0
75 -186 0
-187 6 0
-187 31 0
-187 13 0
187 -6 -31 -13 0
-76 187 0
76 -187 0
-188 -32 0
-188 -76 0
188 32 76 0
189 -188 0
189 -32 0
-189 188 32 0
-77 189 0
77 -189 0
-78 74 0
78 -74 0
-190 -83 0
-190 -65 0
-190 59 0
190 83 65 -59 0
-191 -83 0
-191 65 0
191 83 -65 0
192 -190 0
192 -191 0
-192 190 191 0
-79 192 0
79 -192 0
-193 75 0
-193 -66 0
193 -75 66 0
-80 193 0
80 -193 0
-194 -44 0
-194 -21 0
-194 45 0
194 44 21 -45 0
-195 44 0
-195 -21 0
195 -44 21 0
196 -194 0
196 -195 0
-196 194 195 0
-81 196 0
81 -196 0
-197 81 0
-197 -40 0
197 -81 40 0
-82 197 0
82 -197 0
-83 -1 0
83 1 0
