p cnf 36 142
-8 -2 0
-8 -4 0
-8 7 0
8 2 4 -7 0
-9 -2 0
-9 4 0
-9 -5 0
-9 7 0
9 2 -4 5 -7 0
-10 -2 0
-10 4 0
-10 5 0
-10 -6 0
-10 7 0
10 2 -4 -5 6 -7 0
-11 2 0
-11 -3 0
-11 -4 0
-11 7 0
11 -2 3 4 -7 0
-12 2 0
-12 -3 0
-12 4 0
-12 -5 0
-12 7 0
12 -2 3 -4 5 -7 0
-13 2 0
-13 -3 0
-13 4 0
-13 5 0
-13 -6 0
-13 7 0
13 -2 3 -4 -5 6 -7 0
14 -8 0
14 -9 0
14 -10 0
14 -11 0
14 -12 0
14 -13 0
-14 8 9 10 11 12 13 0
-1 14 0
1 -14 0
-15 -2 0
-15 -4 0
15 2 4 0
-16 -2 0
-16 4 0
-16 1 0
16 2 -4 -1 0
-17 2 0
-17 -3 0
-17 -4 0
17 -2 3 4 0
-18 2 0
-18 -3 0
-18 4 0
-18 1 0
18 -2 3 -4 -1 0
-19 2 0
-19 3 0
19 -2 -3 0
20 -15 0
20 -16 0
20 -17 0
20 -18 0
20 -19 0
-20 15 16 17 18 19 0
-2 20 0
2 -20 0
-21 2 0
-21 -4 0
21 -2 4 0
-22 2 0
-22 4 0
-22 1 0
22 -2 -4 -1 0
23 -21 0
23 -22 0
-23 21 22 0
-3 23 0
3 -23 0
-24 2 0
-24 -3 0
24 -2 3 0
-25 2 0
-25 3 0
-25 4 0
-25 5 0
25 -2 -3 -4 -5 0
26 2 0
26 -24 0
26 -25 0
-26 -2 24 25 0
-4 26 0
4 -26 0
-27 -2 0
-27 4 0
27 2 -4 0
-28 2 0
-28 -3 0
-28 4 0
28 -2 3 -4 0
-29 2 0
-29 3 0
-29 4 0
-29 5 0
-29 6 0
29 -2 -3 -4 -5 -6 0
30 -27 0
30 -28 0
30 -29 0
-30 27 28 29 0
-5 30 0
5 -30 0
-31 -2 0
-31 4 0
-31 5 0
-31 -6 0
31 2 -4 -5 6 0
-32 2 0
-32 -3 0
-32 4 0
-32 5 0
-32 -6 0
32 -2 3 -4 -5 6 0
33 -31 0
33 -32 0
-33 31 32 0
-6 33 0
6 -33 0
-34 -2 0
-34 -4 0
34 2 4 0
-35 -2 0
-35 4 0
-35 -5 0
35 2 -4 5 0
36 -34 0
36 -35 0
-36 34 35 0
-7 36 0
7 -36 0
