p cnf 72 197
20 8 0
20 -4 0
-20 -8 4 0
21 -14 0
21 -20 0
-21 14 20 0
22 -11 0
22 -21 0
-22 11 21 0
-1 22 0
1 -22 0
23 -2 0
23 -4 0
-23 2 4 0
-2 23 0
2 -23 0
-24 6 0
-24 -4 0
24 -6 4 0
-3 24 0
3 -24 0
25 -7 0
25 6 0
-25 7 -6 0
26 -11 0
26 -25 0
-26 11 25 0
-27 -3 0
-27 26 0
27 3 -26 0
-28 -5 0
-28 27 0
28 5 -27 0
-4 28 0
4 -28 0
-29 2 0
-29 4 0
29 -2 -4 0
-30 8 0
-30 29 0
30 -8 -29 0
-31 8 0
-31 5 0
31 -8 -5 0
32 -30 0
32 -31 0
-32 30 31 0
-5 32 0
5 -32 0
-33 -10 0
-33 -11 0
33 10 11 0
34 16 0
34 13 0
-34 -16 -13 0
35 18 0
35 -34 0
-35 -18 34 0
36 17 0
36 -35 0
-36 -17 35 0
37 -33 0
37 -36 0
-37 33 36 0
38 12 0
38 -37 0
-38 -12 37 0
-39 3 0
-39 38 0
39 -3 -38 0
-6 39 0
6 -39 0
40 -11 0
40 -7 0
-40 11 7 0
41 -4 0
41 -40 0
-41 4 40 0
-7 41 0
7 -41 0
-42 -7 0
-42 -1 0
42 7 1 0
-8 42 0
8 -42 0
43 9 0
43 12 0
-43 -9 -12 0
44 -4 0
44 43 0
-44 4 -43 0
45 8 0
45 -44 0
-45 -8 44 0
46 -14 0
46 -45 0
-46 14 45 0
-9 46 0
9 -46 0
47 -4 0
47 -11 0
-47 4 11 0
48 8 0
48 -47 0
-48 -8 47 0
49 -14 0
49 -48 0
-49 14 48 0
-10 49 0
10 -49 0
50 -9 0
50 -15 0
-50 9 15 0
51 -17 0
51 18 0
-51 17 -18 0
-52 50 0
-52 51 0
52 -50 -51 0
-11 52 0
11 -52 0
53 -1 0
53 8 0
-53 1 -8 0
54 -9 0
54 -53 0
-54 9 53 0
55 -10 0
55 -54 0
-55 10 54 0
56 -15 0
56 -55 0
-56 15 55 0
57 -4 0
57 -56 0
-57 4 56 0
58 -11 0
58 -57 0
-58 11 57 0
59 -7 0
59 -58 0
-59 7 58 0
-12 59 0
12 -59 0
60 -13 0
60 -16 0
-60 13 16 0
61 -4 0
61 -60 0
-61 4 60 0
62 -9 0
62 -61 0
-62 9 61 0
-13 62 0
13 -62 0
63 -4 0
63 -15 0
-63 4 15 0
-64 63 0
-64 -9 0
64 -63 9 0
-14 64 0
14 -64 0
65 -16 0
65 -7 0
-65 16 7 0
66 -12 0
66 -65 0
-66 12 65 0
-15 66 0
15 -66 0
67 -4 0
67 -12 0
-67 4 12 0
68 -1 0
68 -67 0
-68 1 67 0
-16 68 0
16 -68 0
-69 12 0
-69 -19 0
69 -12 19 0
-17 69 0
17 -69 0
-70 12 0
-70 -19 0
70 -12 19 0
-18 70 0
18 -70 0
-71 -17 0
-71 -18 0
71 17 18 0
-72 -12 0
-72 71 0
72 12 -71 0
-19 72 0
19 -72 0
