p cnf 357 1441
-1 -31 0
1 31 0
-2 -32 0
2 32 0
-3 -33 0
3 33 0
-4 -34 0
4 34 0
-5 -35 0
5 35 0
-6 -36 0
6 36 0
-103 -25 0
-103 -1 0
-103 7 0
-103 8 0
103 25 1 -7 -8 0
-104 -25 0
-104 1 0
-104 -7 0
-104 -61 0
104 25 -1 7 61 0
-105 -25 0
-105 1 0
-105 7 0
-105 -8 0
-105 -61 0
105 25 -1 -7 8 61 0
-106 -25 0
-106 1 0
-106 7 0
-106 8 0
106 25 -1 -7 -8 0
-107 25 0
-107 -1 0
-107 7 0
-107 8 0
107 -25 1 -7 -8 0
-108 25 0
-108 1 0
108 -25 -1 0
109 -103 0
109 -104 0
109 -105 0
109 -106 0
109 -107 0
109 -108 0
-109 103 104 105 106 107 108 0
-7 109 0
7 -109 0
-110 25 0
-110 1 0
-110 7 0
-110 -61 0
110 -25 -1 -7 61 0
-8 110 0
8 -110 0
-111 -26 0
-111 -2 0
-111 9 0
-111 10 0
111 26 2 -9 -10 0
-112 -26 0
-112 2 0
-112 -9 0
-112 -63 0
112 26 -2 9 63 0
-113 -26 0
-113 2 0
-113 9 0
-113 -10 0
-113 -63 0
113 26 -2 -9 10 63 0
-114 -26 0
-114 2 0
-114 9 0
-114 10 0
114 26 -2 -9 -10 0
-115 26 0
-115 -2 0
-115 9 0
-115 10 0
115 -26 2 -9 -10 0
-116 26 0
-116 2 0
116 -26 -2 0
117 -111 0
117 -112 0
117 -113 0
117 -114 0
117 -115 0
117 -116 0
-117 111 112 113 114 115 116 0
-9 117 0
9 -117 0
-118 26 0
-118 2 0
-118 9 0
-118 -63 0
118 -26 -2 -9 63 0
-10 118 0
10 -118 0
-119 -27 0
-119 -3 0
-119 11 0
-119 12 0
119 27 3 -11 -12 0
-120 -27 0
-120 3 0
-120 -11 0
-120 -65 0
120 27 -3 11 65 0
-121 -27 0
-121 3 0
-121 11 0
-121 -12 0
-121 -65 0
121 27 -3 -11 12 65 0
-122 -27 0
-122 3 0
-122 11 0
-122 12 0
122 27 -3 -11 -12 0
-123 27 0
-123 -3 0
-123 11 0
-123 12 0
123 -27 3 -11 -12 0
-124 27 0
-124 3 0
124 -27 -3 0
125 -119 0
125 -120 0
125 -121 0
125 -122 0
125 -123 0
125 -124 0
-125 119 120 121 122 123 124 0
-11 125 0
11 -125 0
-126 27 0
-126 3 0
-126 11 0
-126 -65 0
126 -27 -3 -11 65 0
-12 126 0
12 -126 0
-127 -28 0
-127 -4 0
-127 13 0
-127 14 0
127 28 4 -13 -14 0
-128 -28 0
-128 4 0
-128 -13 0
-128 -67 0
128 28 -4 13 67 0
-129 -28 0
-129 4 0
-129 13 0
-129 -14 0
-129 -67 0
129 28 -4 -13 14 67 0
-130 -28 0
-130 4 0
-130 13 0
-130 14 0
130 28 -4 -13 -14 0
-131 28 0
-131 -4 0
-131 13 0
-131 14 0
131 -28 4 -13 -14 0
-132 28 0
-132 4 0
132 -28 -4 0
133 -127 0
133 -128 0
133 -129 0
133 -130 0
133 -131 0
133 -132 0
-133 127 128 129 130 131 132 0
-13 133 0
13 -133 0
-134 28 0
-134 4 0
-134 13 0
-134 -67 0
134 -28 -4 -13 67 0
-14 134 0
14 -134 0
-135 -29 0
-135 -5 0
-135 15 0
-135 16 0
135 29 5 -15 -16 0
-136 -29 0
-136 5 0
-136 -15 0
-136 -69 0
136 29 -5 15 69 0
-137 -29 0
-137 5 0
-137 15 0
-137 -16 0
-137 -69 0
137 29 -5 -15 16 69 0
-138 -29 0
-138 5 0
-138 15 0
-138 16 0
138 29 -5 -15 -16 0
-139 29 0
-139 -5 0
-139 15 0
-139 16 0
139 -29 5 -15 -16 0
-140 29 0
-140 5 0
140 -29 -5 0
141 -135 0
141 -136 0
141 -137 0
141 -138 0
141 -139 0
141 -140 0
-141 135 136 137 138 139 140 0
-15 141 0
15 -141 0
-142 29 0
-142 5 0
-142 15 0
-142 -69 0
142 -29 -5 -15 69 0
-16 142 0
16 -142 0
-143 -30 0
-143 -6 0
-143 17 0
-143 18 0
143 30 6 -17 -18 0
-144 -30 0
-144 6 0
-144 -17 0
-144 -71 0
144 30 -6 17 71 0
-145 -30 0
-145 6 0
-145 17 0
-145 -18 0
-145 -71 0
145 30 -6 -17 18 71 0
-146 -30 0
-146 6 0
-146 17 0
-146 18 0
146 30 -6 -17 -18 0
-147 30 0
-147 -6 0
-147 17 0
-147 18 0
147 -30 6 -17 -18 0
-148 30 0
-148 6 0
148 -30 -6 0
149 -143 0
149 -144 0
149 -145 0
149 -146 0
149 -147 0
149 -148 0
-149 143 144 145 146 147 148 0
-17 149 0
17 -149 0
-150 30 0
-150 6 0
-150 17 0
-150 -71 0
150 -30 -6 -17 71 0
-18 150 0
18 -150 0
-151 -25 0
-151 1 0
-151 61 0
-151 62 0
151 25 -1 -61 -62 0
-19 151 0
19 -151 0
-152 -26 0
-152 2 0
-152 63 0
-152 64 0
152 26 -2 -63 -64 0
-20 152 0
20 -152 0
-153 -27 0
-153 3 0
-153 65 0
-153 66 0
153 27 -3 -65 -66 0
-21 153 0
21 -153 0
-154 -28 0
-154 4 0
-154 67 0
-154 68 0
154 28 -4 -67 -68 0
-22 154 0
22 -154 0
-155 -29 0
-155 5 0
-155 69 0
-155 70 0
155 29 -5 -69 -70 0
-23 155 0
23 -155 0
-156 -30 0
-156 6 0
-156 71 0
-156 72 0
156 30 -6 -71 -72 0
-24 156 0
24 -156 0
-25 37 0
25 -37 0
-26 38 0
26 -38 0
-27 39 0
27 -39 0
-28 40 0
28 -40 0
-29 41 0
29 -41 0
-30 42 0
30 -42 0
-157 25 0
-157 -85 0
157 -25 85 0
-31 157 0
31 -157 0
-158 26 0
-158 -86 0
158 -26 86 0
-32 158 0
32 -158 0
-159 27 0
-159 -87 0
159 -27 87 0
-33 159 0
33 -159 0
-160 28 0
-160 -88 0
160 -28 88 0
-34 160 0
34 -160 0
-161 29 0
-161 -89 0
161 -29 89 0
-35 161 0
35 -161 0
-162 30 0
-162 -90 0
162 -30 90 0
-36 162 0
36 -162 0
-163 -91 0
-163 93 0
-163 94 0
163 91 -93 -94 0
164 -163 0
164 -91 0
-164 163 91 0
-37 164 0
37 -164 0
-165 -91 0
-165 -93 0
-165 95 0
-165 96 0
165 91 93 -95 -96 0
-166 -91 0
-166 93 0
166 91 -93 0
-167 91 0
-167 -92 0
-167 -93 0
-167 95 0
-167 96 0
167 -91 92 93 -95 -96 0
-168 91 0
-168 -92 0
-168 93 0
168 -91 92 -93 0
-169 91 0
-169 92 0
169 -91 -92 0
170 -165 0
170 -166 0
170 -167 0
170 -168 0
170 -169 0
-170 165 166 167 168 169 0
-38 170 0
38 -170 0
-171 -93 0
-171 -95 0
-171 97 0
-171 98 0
171 93 95 -97 -98 0
-172 -93 0
-172 95 0
172 93 -95 0
-173 93 0
-173 -94 0
-173 -95 0
-173 97 0
-173 98 0
173 -93 94 95 -97 -98 0
-174 93 0
-174 -94 0
-174 95 0
174 -93 94 -95 0
-175 93 0
-175 94 0
175 -93 -94 0
176 -171 0
176 -172 0
176 -173 0
176 -174 0
176 -175 0
-176 171 172 173 174 175 0
-39 176 0
39 -176 0
-177 -95 0
-177 -97 0
-177 99 0
-177 100 0
177 95 97 -99 -100 0
-178 -95 0
-178 97 0
178 95 -97 0
-179 95 0
-179 -96 0
-179 -97 0
-179 99 0
-179 100 0
179 -95 96 97 -99 -100 0
-180 95 0
-180 -96 0
-180 97 0
180 -95 96 -97 0
-181 95 0
-181 96 0
181 -95 -96 0
182 -177 0
182 -178 0
182 -179 0
182 -180 0
182 -181 0
-182 177 178 179 180 181 0
-40 182 0
40 -182 0
-183 -97 0
-183 -99 0
-183 101 0
-183 102 0
183 97 99 -101 -102 0
-184 -97 0
-184 99 0
184 97 -99 0
-185 97 0
-185 -98 0
-185 -99 0
-185 101 0
-185 102 0
185 -97 98 99 -101 -102 0
-186 97 0
-186 -98 0
-186 99 0
186 -97 98 -99 0
-187 97 0
-187 98 0
187 -97 -98 0
188 -183 0
188 -184 0
188 -185 0
188 -186 0
188 -187 0
-188 183 184 185 186 187 0
-41 188 0
41 -188 0
-189 -99 0
-189 101 0
189 99 -101 0
-190 99 0
-190 -100 0
-190 101 0
190 -99 100 -101 0
-191 99 0
-191 100 0
191 -99 -100 0
192 -189 0
192 -190 0
192 -191 0
-192 189 190 191 0
-42 192 0
42 -192 0
-193 31 0
-193 -19 0
193 -31 19 0
-43 193 0
43 -193 0
-194 32 0
-194 -20 0
194 -32 20 0
-44 194 0
44 -194 0
-195 33 0
-195 -21 0
195 -33 21 0
-45 195 0
45 -195 0
-196 34 0
-196 -22 0
196 -34 22 0
-46 196 0
46 -196 0
-197 35 0
-197 -23 0
197 -35 23 0
-47 197 0
47 -197 0
-198 36 0
-198 -24 0
198 -36 24 0
-48 198 0
48 -198 0
-199 -49 0
-199 -31 0
199 49 31 0
-200 49 0
-200 -50 0
-200 -31 0
200 -49 50 31 0
-201 49 0
-201 50 0
201 -49 -50 0
202 -199 0
202 -200 0
202 -201 0
-202 199 200 201 0
-49 202 0
49 -202 0
-203 25 0
-203 49 0
-203 -31 0
203 -25 -49 31 0
-50 203 0
50 -203 0
-204 -51 0
-204 -32 0
204 51 32 0
-205 51 0
-205 -52 0
-205 -32 0
205 -51 52 32 0
-206 51 0
-206 52 0
206 -51 -52 0
207 -204 0
207 -205 0
207 -206 0
-207 204 205 206 0
-51 207 0
51 -207 0
-208 26 0
-208 51 0
-208 -32 0
208 -26 -51 32 0
-52 208 0
52 -208 0
-209 -53 0
-209 -33 0
209 53 33 0
-210 53 0
-210 -54 0
-210 -33 0
210 -53 54 33 0
-211 53 0
-211 54 0
211 -53 -54 0
212 -209 0
212 -210 0
212 -211 0
-212 209 210 211 0
-53 212 0
53 -212 0
-213 27 0
-213 53 0
-213 -33 0
213 -27 -53 33 0
-54 213 0
54 -213 0
-214 -55 0
-214 -34 0
214 55 34 0
-215 55 0
-215 -56 0
-215 -34 0
215 -55 56 34 0
-216 55 0
-216 56 0
216 -55 -56 0
217 -214 0
217 -215 0
217 -216 0
-217 214 215 216 0
-55 217 0
55 -217 0
-218 28 0
-218 55 0
-218 -34 0
218 -28 -55 34 0
-56 218 0
56 -218 0
-219 -57 0
-219 -35 0
219 57 35 0
-220 57 0
-220 -58 0
-220 -35 0
220 -57 58 35 0
-221 57 0
-221 58 0
221 -57 -58 0
222 -219 0
222 -220 0
222 -221 0
-222 219 220 221 0
-57 222 0
57 -222 0
-223 29 0
-223 57 0
-223 -35 0
223 -29 -57 35 0
-58 223 0
58 -223 0
-224 -59 0
-224 -36 0
224 59 36 0
-225 59 0
-225 -60 0
-225 -36 0
225 -59 60 36 0
-226 59 0
-226 60 0
226 -59 -60 0
227 -224 0
227 -225 0
227 -226 0
-227 224 225 226 0
-59 227 0
59 -227 0
-228 30 0
-228 59 0
-228 -36 0
228 -30 -59 36 0
-60 228 0
60 -228 0
-229 -61 0
-229 73 0
229 61 -73 0
-230 61 0
-230 -62 0
-230 73 0
230 -61 62 -73 0
-231 61 0
-231 62 0
231 -61 -62 0
232 -229 0
232 -230 0
232 -231 0
-232 229 230 231 0
-61 232 0
61 -232 0
-233 61 0
-233 73 0
233 -61 -73 0
-62 233 0
62 -233 0
-234 -63 0
-234 75 0
234 63 -75 0
-235 63 0
-235 -64 0
-235 75 0
235 -63 64 -75 0
-236 63 0
-236 64 0
236 -63 -64 0
237 -234 0
237 -235 0
237 -236 0
-237 234 235 236 0
-63 237 0
63 -237 0
-238 63 0
-238 75 0
238 -63 -75 0
-64 238 0
64 -238 0
-239 -65 0
-239 77 0
239 65 -77 0
-240 65 0
-240 -66 0
-240 77 0
240 -65 66 -77 0
-241 65 0
-241 66 0
241 -65 -66 0
242 -239 0
242 -240 0
242 -241 0
-242 239 240 241 0
-65 242 0
65 -242 0
-243 65 0
-243 77 0
243 -65 -77 0
-66 243 0
66 -243 0
-244 -67 0
-244 79 0
244 67 -79 0
-245 67 0
-245 -68 0
-245 79 0
245 -67 68 -79 0
-246 67 0
-246 68 0
246 -67 -68 0
247 -244 0
247 -245 0
247 -246 0
-247 244 245 246 0
-67 247 0
67 -247 0
-248 67 0
-248 79 0
248 -67 -79 0
-68 248 0
68 -248 0
-249 -69 0
-249 81 0
249 69 -81 0
-250 69 0
-250 -70 0
-250 81 0
250 -69 70 -81 0
-251 69 0
-251 70 0
251 -69 -70 0
252 -249 0
252 -250 0
252 -251 0
-252 249 250 251 0
-69 252 0
69 -252 0
-253 69 0
-253 81 0
253 -69 -81 0
-70 253 0
70 -253 0
-254 -71 0
-254 83 0
254 71 -83 0
-255 71 0
-255 -72 0
-255 83 0
255 -71 72 -83 0
-256 71 0
-256 72 0
256 -71 -72 0
257 -254 0
257 -255 0
257 -256 0
-257 254 255 256 0
-71 257 0
71 -257 0
-258 71 0
-258 83 0
258 -71 -83 0
-72 258 0
72 -258 0
-259 -31 0
-259 -73 0
-259 -44 0
259 31 73 44 0
-260 -31 0
-260 73 0
-260 -74 0
-260 -44 0
260 31 -73 74 44 0
-261 -31 0
-261 73 0
-261 74 0
261 31 -73 -74 0
-262 31 0
-262 73 0
-262 74 0
262 -31 -73 -74 0
263 -259 0
263 -260 0
263 -261 0
263 -262 0
-263 259 260 261 262 0
-73 263 0
73 -263 0
-264 -31 0
-264 7 0
-264 73 0
-264 -44 0
264 31 -7 -73 44 0
-74 264 0
74 -264 0
-265 -43 0
-265 -32 0
-265 -75 0
-265 -45 0
265 43 32 75 45 0
-266 -43 0
-266 -32 0
-266 75 0
-266 -76 0
-266 -45 0
266 43 32 -75 76 45 0
-267 -43 0
-267 -32 0
-267 75 0
-267 76 0
267 43 32 -75 -76 0
-268 -43 0
-268 32 0
-268 75 0
-268 76 0
268 43 -32 -75 -76 0
-269 43 0
-269 75 0
-269 76 0
269 -43 -75 -76 0
270 -265 0
270 -266 0
270 -267 0
270 -268 0
270 -269 0
-270 265 266 267 268 269 0
-75 270 0
75 -270 0
-271 -43 0
-271 -32 0
-271 9 0
-271 75 0
-271 -45 0
271 43 32 -9 -75 45 0
-76 271 0
76 -271 0
-272 -44 0
-272 -33 0
-272 -77 0
-272 -46 0
272 44 33 77 46 0
-273 -44 0
-273 -33 0
-273 77 0
-273 -78 0
-273 -46 0
273 44 33 -77 78 46 0
-274 -44 0
-274 -33 0
-274 77 0
-274 78 0
274 44 33 -77 -78 0
-275 -44 0
-275 33 0
-275 77 0
-275 78 0
275 44 -33 -77 -78 0
-276 44 0
-276 77 0
-276 78 0
276 -44 -77 -78 0
277 -272 0
277 -273 0
277 -274 0
277 -275 0
277 -276 0
-277 272 273 274 275 276 0
-77 277 0
77 -277 0
-278 -44 0
-278 -33 0
-278 11 0
-278 77 0
-278 -46 0
278 44 33 -11 -77 46 0
-78 278 0
78 -278 0
-279 -45 0
-279 -34 0
-279 -79 0
-279 -47 0
279 45 34 79 47 0
-280 -45 0
-280 -34 0
-280 79 0
-280 -80 0
-280 -47 0
280 45 34 -79 80 47 0
-281 -45 0
-281 -34 0
-281 79 0
-281 80 0
281 45 34 -79 -80 0
-282 -45 0
-282 34 0
-282 79 0
-282 80 0
282 45 -34 -79 -80 0
-283 45 0
-283 79 0
-283 80 0
283 -45 -79 -80 0
284 -279 0
284 -280 0
284 -281 0
284 -282 0
284 -283 0
-284 279 280 281 282 283 0
-79 284 0
79 -284 0
-285 -45 0
-285 -34 0
-285 13 0
-285 79 0
-285 -47 0
285 45 34 -13 -79 47 0
-80 285 0
80 -285 0
-286 -46 0
-286 -35 0
-286 -81 0
-286 -48 0
286 46 35 81 48 0
-287 -46 0
-287 -35 0
-287 81 0
-287 -82 0
-287 -48 0
287 46 35 -81 82 48 0
-288 -46 0
-288 -35 0
-288 81 0
-288 82 0
288 46 35 -81 -82 0
-289 -46 0
-289 35 0
-289 81 0
-289 82 0
289 46 -35 -81 -82 0
-290 46 0
-290 81 0
-290 82 0
290 -46 -81 -82 0
291 -286 0
291 -287 0
291 -288 0
291 -289 0
291 -290 0
-291 286 287 288 289 290 0
-81 291 0
81 -291 0
-292 -46 0
-292 -35 0
-292 15 0
-292 81 0
-292 -48 0
292 46 35 -15 -81 48 0
-82 292 0
82 -292 0
-293 -47 0
-293 -36 0
293 47 36 0
-294 -47 0
-294 36 0
-294 83 0
-294 84 0
294 47 -36 -83 -84 0
-295 47 0
-295 83 0
-295 84 0
295 -47 -83 -84 0
296 -293 0
296 -294 0
296 -295 0
-296 293 294 295 0
-83 296 0
83 -296 0
-297 -47 0
-297 -36 0
-297 17 0
-297 83 0
297 47 36 -17 -83 0
-84 297 0
84 -297 0
-298 25 0
-298 -31 0
298 -25 31 0
-85 298 0
85 -298 0
-299 26 0
-299 -32 0
299 -26 32 0
-86 299 0
86 -299 0
-300 27 0
-300 -33 0
300 -27 33 0
-87 300 0
87 -300 0
-301 28 0
-301 -34 0
301 -28 34 0
-88 301 0
88 -301 0
-302 29 0
-302 -35 0
302 -29 35 0
-89 302 0
89 -302 0
-303 30 0
-303 -36 0
303 -30 36 0
-90 303 0
90 -303 0
-304 -91 0
-304 85 0
-304 -49 0
-304 -31 0
-304 7 0
304 91 -85 49 31 -7 0
-305 -91 0
-305 85 0
-305 49 0
-305 -50 0
-305 -31 0
-305 7 0
305 91 -85 -49 50 31 -7 0
-306 -91 0
-306 85 0
-306 49 0
-306 50 0
-306 -31 0
-306 7 0
-306 8 0
306 91 -85 -49 -50 31 -7 -8 0
-307 91 0
-307 -92 0
-307 85 0
-307 -49 0
-307 -31 0
-307 7 0
307 -91 92 -85 49 31 -7 0
-308 91 0
-308 -92 0
-308 85 0
-308 49 0
-308 -50 0
-308 -31 0
-308 7 0
308 -91 92 -85 -49 50 31 -7 0
-309 91 0
-309 -92 0
-309 85 0
-309 49 0
-309 50 0
-309 -31 0
-309 7 0
-309 8 0
309 -91 92 -85 -49 -50 31 -7 -8 0
-310 91 0
-310 92 0
310 -91 -92 0
311 -304 0
311 -305 0
311 -306 0
311 -307 0
311 -308 0
311 -309 0
311 -310 0
-311 304 305 306 307 308 309 310 0
-91 311 0
91 -311 0
-312 91 0
-312 85 0
-312 -31 0
-312 7 0
-312 8 0
312 -91 -85 31 -7 -8 0
-92 312 0
92 -312 0
-313 -93 0
-313 86 0
-313 -51 0
-313 -32 0
-313 9 0
313 93 -86 51 32 -9 0
-314 -93 0
-314 86 0
-314 51 0
-314 -52 0
-314 -32 0
-314 9 0
314 93 -86 -51 52 32 -9 0
-315 -93 0
-315 86 0
-315 51 0
-315 52 0
-315 -32 0
-315 9 0
-315 10 0
315 93 -86 -51 -52 32 -9 -10 0
-316 93 0
-316 -94 0
-316 86 0
-316 -51 0
-316 -32 0
-316 9 0
316 -93 94 -86 51 32 -9 0
-317 93 0
-317 -94 0
-317 86 0
-317 51 0
-317 -52 0
-317 -32 0
-317 9 0
317 -93 94 -86 -51 52 32 -9 0
-318 93 0
-318 -94 0
-318 86 0
-318 51 0
-318 52 0
-318 -32 0
-318 9 0
-318 10 0
318 -93 94 -86 -51 -52 32 -9 -10 0
-319 93 0
-319 94 0
319 -93 -94 0
320 -313 0
320 -314 0
320 -315 0
320 -316 0
320 -317 0
320 -318 0
320 -319 0
-320 313 314 315 316 317 318 319 0
-93 320 0
93 -320 0
-321 93 0
-321 86 0
-321 -32 0
-321 9 0
-321 10 0
321 -93 -86 32 -9 -10 0
-94 321 0
94 -321 0
-322 -95 0
-322 87 0
-322 -53 0
-322 -33 0
-322 11 0
322 95 -87 53 33 -11 0
-323 -95 0
-323 87 0
-323 53 0
-323 -54 0
-323 -33 0
-323 11 0
323 95 -87 -53 54 33 -11 0
-324 -95 0
-324 87 0
-324 53 0
-324 54 0
-324 -33 0
-324 11 0
-324 12 0
324 95 -87 -53 -54 33 -11 -12 0
-325 95 0
-325 -96 0
-325 87 0
-325 -53 0
-325 -33 0
-325 11 0
325 -95 96 -87 53 33 -11 0
-326 95 0
-326 -96 0
-326 87 0
-326 53 0
-326 -54 0
-326 -33 0
-326 11 0
326 -95 96 -87 -53 54 33 -11 0
-327 95 0
-327 -96 0
-327 87 0
-327 53 0
-327 54 0
-327 -33 0
-327 11 0
-327 12 0
327 -95 96 -87 -53 -54 33 -11 -12 0
-328 95 0
-328 96 0
328 -95 -96 0
329 -322 0
329 -323 0
329 -324 0
329 -325 0
329 -326 0
329 -327 0
329 -328 0
-329 322 323 324 325 326 327 328 0
-95 329 0
95 -329 0
-330 95 0
-330 87 0
-330 -33 0
-330 11 0
-330 12 0
330 -95 -87 33 -11 -12 0
-96 330 0
96 -330 0
-331 -97 0
-331 88 0
-331 -55 0
-331 -34 0
-331 13 0
331 97 -88 55 34 -13 0
-332 -97 0
-332 88 0
-332 55 0
-332 -56 0
-332 -34 0
-332 13 0
332 97 -88 -55 56 34 -13 0
-333 -97 0
-333 88 0
-333 55 0
-333 56 0
-333 -34 0
-333 13 0
-333 14 0
333 97 -88 -55 -56 34 -13 -14 0
-334 97 0
-334 -98 0
-334 88 0
-334 -55 0
-334 -34 0
-334 13 0
334 -97 98 -88 55 34 -13 0
-335 97 0
-335 -98 0
-335 88 0
-335 55 0
-335 -56 0
-335 -34 0
-335 13 0
335 -97 98 -88 -55 56 34 -13 0
-336 97 0
-336 -98 0
-336 88 0
-336 55 0
-336 56 0
-336 -34 0
-336 13 0
-336 14 0
336 -97 98 -88 -55 -56 34 -13 -14 0
-337 97 0
-337 98 0
337 -97 -98 0
338 -331 0
338 -332 0
338 -333 0
338 -334 0
338 -335 0
338 -336 0
338 -337 0
-338 331 332 333 334 335 336 337 0
-97 338 0
97 -338 0
-339 97 0
-339 88 0
-339 -34 0
-339 13 0
-339 14 0
339 -97 -88 34 -13 -14 0
-98 339 0
98 -339 0
-340 -99 0
-340 89 0
-340 -57 0
-340 -35 0
-340 15 0
340 99 -89 57 35 -15 0
-341 -99 0
-341 89 0
-341 57 0
-341 -58 0
-341 -35 0
-341 15 0
341 99 -89 -57 58 35 -15 0
-342 -99 0
-342 89 0
-342 57 0
-342 58 0
-342 -35 0
-342 15 0
-342 16 0
342 99 -89 -57 -58 35 -15 -16 0
-343 99 0
-343 -100 0
-343 89 0
-343 -57 0
-343 -35 0
-343 15 0
343 -99 100 -89 57 35 -15 0
-344 99 0
-344 -100 0
-344 89 0
-344 57 0
-344 -58 0
-344 -35 0
-344 15 0
344 -99 100 -89 -57 58 35 -15 0
-345 99 0
-345 -100 0
-345 89 0
-345 57 0
-345 58 0
-345 -35 0
-345 15 0
-345 16 0
345 -99 100 -89 -57 -58 35 -15 -16 0
-346 99 0
-346 100 0
346 -99 -100 0
347 -340 0
347 -341 0
347 -342 0
347 -343 0
347 -344 0
347 -345 0
347 -346 0
-347 340 341 342 343 344 345 346 0
-99 347 0
99 -347 0
-348 99 0
-348 89 0
-348 -35 0
-348 15 0
-348 16 0
348 -99 -89 35 -15 -16 0
-100 348 0
100 -348 0
-349 -101 0
-349 90 0
-349 -59 0
-349 -36 0
-349 17 0
349 101 -90 59 36 -17 0
-350 -101 0
-350 90 0
-350 59 0
-350 -60 0
-350 -36 0
-350 17 0
350 101 -90 -59 60 36 -17 0
-351 -101 0
-351 90 0
-351 59 0
-351 60 0
-351 -36 0
-351 17 0
-351 18 0
351 101 -90 -59 -60 36 -17 -18 0
-352 101 0
-352 -102 0
-352 90 0
-352 -59 0
-352 -36 0
-352 17 0
352 -101 102 -90 59 36 -17 0
-353 101 0
-353 -102 0
-353 90 0
-353 59 0
-353 -60 0
-353 -36 0
-353 17 0
353 -101 102 -90 -59 60 36 -17 0
-354 101 0
-354 -102 0
-354 90 0
-354 59 0
-354 60 0
-354 -36 0
-354 17 0
-354 18 0
354 -101 102 -90 -59 -60 36 -17 -18 0
-355 101 0
-355 102 0
355 -101 -102 0
356 -349 0
356 -350 0
356 -351 0
356 -352 0
356 -353 0
356 -354 0
356 -355 0
-356 349 350 351 352 353 354 355 0
-101 356 0
101 -356 0
-357 101 0
-357 90 0
-357 -36 0
-357 17 0
-357 18 0
357 -101 -90 36 -17 -18 0
-102 357 0
102 -357 0
