p cnf 48 202
-12 -1 0
-12 8 0
-12 -11 0
-12 -6 0
12 1 -8 11 6 0
-13 1 0
-13 -2 0
-13 -10 0
-13 -11 0
13 -1 2 10 11 0
-14 1 0
-14 -2 0
-14 10 0
-14 -11 0
-14 -6 0
14 -1 2 -10 11 6 0
-15 1 0
-15 2 0
15 -1 -2 0
16 -12 0
16 -13 0
16 -14 0
16 -15 0
-16 12 13 14 15 0
-1 16 0
1 -16 0
-17 1 0
-17 -2 0
-17 8 0
-17 -10 0
-17 -11 0
-17 -6 0
17 -1 2 -8 10 11 6 0
-18 1 0
-18 2 0
-18 -3 0
-18 8 0
-18 -10 0
-18 -11 0
-18 -6 0
18 -1 -2 3 -8 10 11 6 0
-19 1 0
-19 2 0
-19 3 0
19 -1 -2 -3 0
20 -17 0
20 -18 0
20 -19 0
-20 17 18 19 0
-2 20 0
2 -20 0
-21 1 0
-21 2 0
-21 8 0
-21 -10 0
-21 -11 0
-21 -6 0
21 -1 -2 -8 10 11 6 0
-3 21 0
3 -21 0
-22 -1 0
-22 -11 0
-22 -4 0
-22 -6 0
22 1 11 4 6 0
-23 -1 0
-23 -11 0
-23 4 0
-23 -5 0
-23 -6 0
23 1 11 -4 5 6 0
-24 -1 0
-24 -11 0
-24 4 0
-24 5 0
24 1 11 -4 -5 0
-25 -1 0
-25 11 0
-25 4 0
-25 5 0
25 1 -11 -4 -5 0
-26 1 0
-26 -2 0
-26 -11 0
-26 -4 0
-26 -6 0
26 -1 2 11 4 6 0
-27 1 0
-27 -2 0
-27 -11 0
-27 4 0
-27 -5 0
-27 -6 0
27 -1 2 11 -4 5 6 0
-28 1 0
-28 -2 0
-28 -11 0
-28 4 0
-28 5 0
28 -1 2 11 -4 -5 0
-29 1 0
-29 -2 0
-29 11 0
-29 4 0
-29 5 0
29 -1 2 -11 -4 -5 0
-30 1 0
-30 2 0
-30 4 0
-30 5 0
30 -1 -2 -4 -5 0
31 -22 0
31 -23 0
31 -24 0
31 -25 0
31 -26 0
31 -27 0
31 -28 0
31 -29 0
31 -30 0
-31 22 23 24 25 26 27 28 29 30 0
-4 31 0
4 -31 0
-32 -1 0
-32 -11 0
-32 4 0
-32 -6 0
32 1 11 -4 6 0
-33 1 0
-33 -2 0
-33 -11 0
-33 4 0
-33 -6 0
33 -1 2 11 -4 6 0
34 -32 0
34 -33 0
-34 32 33 0
-5 34 0
5 -34 0
-35 -1 0
-35 -8 0
35 1 8 0
-6 35 0
6 -35 0
-36 1 0
-36 -2 0
36 -1 2 0
37 1 0
37 -36 0
-37 -1 36 0
-7 37 0
7 -37 0
-38 -8 0
-38 -6 0
38 8 6 0
-39 8 0
-39 -9 0
-39 -6 0
39 -8 9 6 0
-40 8 0
-40 9 0
40 -8 -9 0
41 -38 0
41 -39 0
41 -40 0
-41 38 39 40 0
-8 41 0
8 -41 0
-42 8 0
-42 -7 0
-42 -6 0
42 -8 7 6 0
-9 42 0
9 -42 0
-43 -1 0
-43 8 0
-43 -6 0
43 1 -8 6 0
-44 1 0
-44 -2 0
-44 8 0
-44 -6 0
44 -1 2 -8 6 0
45 -43 0
45 -44 0
-45 43 44 0
-10 45 0
10 -45 0
-46 -1 0
-46 -4 0
-46 -6 0
46 1 4 6 0
-47 1 0
-47 -2 0
-47 -4 0
-47 -6 0
47 -1 2 4 6 0
48 -46 0
48 -47 0
-48 46 47 0
-11 48 0
11 -48 0
