p cnf 97 262
31 11 0
31 -5 0
-31 -11 5 0
32 -23 0
32 -31 0
-32 23 31 0
33 -18 0
33 -32 0
-33 18 32 0
-1 33 0
1 -33 0
34 -5 0
34 3 0
-34 5 -3 0
35 -2 0
35 -34 0
-35 2 34 0
-2 35 0
2 -35 0
-3 -2 0
3 2 0
-36 7 0
-36 -5 0
36 -7 5 0
-4 36 0
4 -36 0
37 6 0
37 -15 0
-37 -6 15 0
-38 9 0
-38 -10 0
38 -9 10 0
-39 3 0
-39 12 0
39 -3 -12 0
40 -8 0
40 7 0
-40 8 -7 0
41 39 0
41 -40 0
-41 -39 40 0
42 38 0
42 -41 0
-42 -38 41 0
-43 -4 0
-43 42 0
43 4 -42 0
-44 37 0
-44 43 0
44 -37 -43 0
-5 44 0
5 -44 0
-45 2 0
-45 5 0
45 -2 -5 0
-46 11 0
-46 45 0
46 -11 -45 0
-47 11 0
-47 6 0
47 -11 -6 0
48 -46 0
48 -47 0
-48 46 47 0
-6 48 0
6 -48 0
-49 -16 0
-49 -18 0
49 16 18 0
50 26 0
50 22 0
-50 -26 -22 0
51 29 0
51 -50 0
-51 -29 50 0
52 28 0
52 -51 0
-52 -28 51 0
53 -49 0
53 -52 0
-53 49 52 0
54 20 0
54 -53 0
-54 -20 53 0
-55 4 0
-55 54 0
55 -4 -54 0
-7 55 0
7 -55 0
-8 -7 0
8 7 0
56 -18 0
56 -10 0
-56 18 10 0
57 -5 0
57 -56 0
-57 5 56 0
-9 57 0
9 -57 0
58 -13 0
58 -11 0
-58 13 11 0
59 -1 0
59 -58 0
-59 1 58 0
-60 18 0
-60 59 0
-60 9 0
60 -18 -59 -9 0
-10 60 0
10 -60 0
-61 -10 0
-61 -1 0
61 10 1 0
-11 61 0
11 -61 0
-62 -1 0
-62 -2 0
62 1 2 0
-12 62 0
12 -62 0
63 13 0
63 20 0
-63 -13 -20 0
64 63 0
64 -8 0
-64 -63 8 0
65 -5 0
65 -64 0
-65 5 64 0
66 11 0
66 -65 0
-66 -11 65 0
67 -23 0
67 -66 0
-67 23 66 0
-13 67 0
13 -67 0
68 -18 0
68 -5 0
-68 18 5 0
-14 68 0
14 -68 0
-15 14 0
15 -14 0
-69 15 0
-69 22 0
69 -15 -22 0
-16 69 0
16 -69 0
70 -13 0
70 -11 0
-70 13 11 0
-71 70 0
-71 24 0
71 -70 -24 0
-17 71 0
17 -71 0
72 -28 0
72 29 0
-72 28 -29 0
-73 17 0
-73 72 0
73 -17 -72 0
-18 73 0
18 -73 0
74 -13 0
74 -25 0
-74 13 25 0
75 -16 0
75 -74 0
-75 16 74 0
76 -5 0
76 -75 0
-76 5 75 0
77 -10 0
77 -76 0
-77 10 76 0
78 -1 0
78 11 0
-78 1 -11 0
-79 77 0
-79 78 0
79 -77 -78 0
-19 79 0
19 -79 0
80 -18 0
80 -24 0
-80 18 24 0
-81 80 0
-81 -12 0
81 -80 12 0
-82 19 0
-82 81 0
82 -19 -81 0
-20 82 0
20 -82 0
83 -22 0
83 -26 0
-83 22 26 0
84 -5 0
84 -83 0
-84 5 83 0
85 -13 0
85 -84 0
-85 13 84 0
-86 85 0
-86 -11 0
86 -85 11 0
-21 86 0
21 -86 0
-87 21 0
-87 -12 0
87 -21 12 0
-22 87 0
22 -87 0
88 -5 0
88 -24 0
-88 5 24 0
-89 88 0
-89 -13 0
89 -88 13 0
-23 89 0
23 -89 0
90 -26 0
90 -10 0
-90 26 10 0
91 -20 0
91 -90 0
-91 20 90 0
-24 91 0
24 -91 0
-25 24 0
25 -24 0
92 -5 0
92 -19 0
-92 5 19 0
93 -1 0
93 -92 0
-93 1 92 0
-26 93 0
26 -93 0
-94 20 0
-94 -30 0
94 -20 30 0
-27 94 0
27 -94 0
-28 27 0
28 -27 0
-95 20 0
-95 -30 0
95 -20 30 0
-29 95 0
29 -95 0
-96 -28 0
-96 -29 0
96 28 29 0
-97 -20 0
-97 96 0
97 20 -96 0
-30 97 0
30 -97 0
