p cnf 41 108
-1 12 0
1 -12 0
16 -1 0
16 -12 0
-16 1 12 0
-2 16 0
2 -16 0
-3 10 0
3 -10 0
-17 8 0
-17 -9 0
17 -8 9 0
-18 13 0
-18 -9 0
18 -13 9 0
19 -17 0
19 -18 0
-19 17 18 0
-4 19 0
4 -19 0
-20 8 0
-20 10 0
20 -8 -10 0
-5 20 0
5 -20 0
-21 7 0
-21 -11 0
21 -7 11 0
22 -10 0
22 -21 0
-22 10 21 0
-6 22 0
6 -22 0
-23 8 0
-23 -13 0
23 -8 13 0
-24 -9 0
-24 -13 0
24 9 13 0
-25 7 0
-25 24 0
25 -7 -24 0
26 -23 0
26 -25 0
-26 23 25 0
27 -6 0
27 -26 0
-27 6 26 0
-7 27 0
7 -27 0
-28 -7 0
-28 -15 0
28 7 15 0
-29 8 0
-29 28 0
29 -8 -28 0
-30 -15 0
-30 -13 0
30 15 13 0
-31 -7 0
-31 30 0
31 7 -30 0
-32 5 0
-32 31 0
32 -5 -31 0
33 -29 0
33 -32 0
-33 29 32 0
-8 33 0
8 -33 0
-9 8 0
9 -8 0
34 -5 0
34 -12 0
-34 5 12 0
-10 34 0
10 -34 0
-35 7 0
-35 -6 0
35 -7 6 0
-11 35 0
11 -35 0
-36 4 0
-36 1 0
36 -4 -1 0
-12 36 0
12 -36 0
-37 13 0
-37 -7 0
37 -13 7 0
-38 -7 0
-38 -8 0
38 7 8 0
-39 4 0
-39 38 0
39 -4 -38 0
40 -37 0
40 -39 0
-40 37 39 0
-13 40 0
13 -40 0
-41 7 0
-41 -13 0
41 -7 13 0
-14 41 0
14 -41 0
-15 7 0
15 -7 0
