p cnf 367 957
-1 12 0
1 -12 0
-2 -3 0
2 3 0
145 -82 0
145 -144 0
-145 82 144 0
146 -46 0
146 -145 0
-146 46 145 0
-147 146 0
-147 -88 0
147 -146 88 0
-3 147 0
3 -147 0
148 -6 0
148 -38 0
-148 6 38 0
149 -116 0
149 -148 0
-149 116 148 0
150 -54 0
150 -149 0
-150 54 149 0
151 -115 0
151 -150 0
-151 115 150 0
-4 151 0
4 -151 0
-5 103 0
5 -103 0
152 -69 0
152 -53 0
-152 69 53 0
153 -37 0
153 -152 0
-153 37 152 0
-6 153 0
6 -153 0
154 -87 0
154 -88 0
-154 87 88 0
155 -60 0
155 -154 0
-155 60 154 0
-156 44 0
-156 -155 0
156 -44 155 0
-7 156 0
7 -156 0
157 -39 0
157 -14 0
-157 39 14 0
158 -50 0
158 -157 0
-158 50 157 0
-8 158 0
8 -158 0
159 -3 0
159 -104 0
-159 3 104 0
-9 -159 0
9 159 0
-10 139 0
10 -139 0
-11 -9 0
11 9 0
160 -122 0
160 -123 0
-160 122 123 0
-12 -160 0
12 160 0
161 -23 0
161 -7 0
-161 23 7 0
162 -44 0
162 -161 0
-162 44 161 0
-163 162 0
-163 -60 0
163 -162 60 0
-13 163 0
13 -163 0
164 -15 0
164 -16 0
-164 15 16 0
-14 164 0
14 -164 0
-15 -20 0
15 20 0
165 -27 0
165 -88 0
-165 27 88 0
-16 165 0
16 -165 0
166 -24 0
166 -36 0
-166 24 36 0
-167 166 0
-167 -139 0
167 -166 139 0
-17 167 0
17 -167 0
168 -134 0
168 -104 0
-168 134 104 0
169 -131 0
169 -168 0
-169 131 168 0
-18 169 0
18 -169 0
-170 127 0
-170 -5 0
170 -127 5 0
-19 170 0
19 -170 0
-171 3 0
-171 -51 0
171 -3 51 0
-20 171 0
20 -171 0
172 -58 0
172 -59 0
-172 58 59 0
-21 172 0
21 -172 0
173 -3 0
173 -140 0
-173 3 140 0
174 -90 0
174 -173 0
-174 90 173 0
-22 174 0
22 -174 0
-23 -60 0
23 60 0
-24 22 0
24 -22 0
-25 89 0
25 -89 0
-175 22 0
-175 -13 0
175 -22 13 0
-26 175 0
26 -175 0
-176 10 0
-176 -11 0
176 -10 11 0
-27 176 0
27 -176 0
-28 34 0
28 -34 0
-29 30 0
29 -30 0
-177 134 0
-177 -77 0
177 -134 77 0
-30 177 0
30 -177 0
178 -69 0
178 -76 0
-178 69 76 0
179 -32 0
179 -178 0
-179 32 178 0
-180 179 0
-180 -112 0
180 -179 112 0
-31 180 0
31 -180 0
181 -37 0
181 -69 0
-181 37 69 0
-32 181 0
32 -181 0
182 -37 0
182 -143 0
-182 37 143 0
-33 182 0
33 -182 0
183 -40 0
183 -113 0
-183 40 113 0
-184 183 0
-184 -51 0
184 -183 51 0
-34 184 0
34 -184 0
-35 -134 0
35 134 0
185 -91 0
185 -111 0
-185 91 111 0
-186 3 0
-186 -185 0
186 -3 185 0
-36 186 0
36 -186 0
187 -33 0
187 -88 0
-187 33 88 0
-188 74 0
-188 -187 0
188 -74 187 0
-37 188 0
37 -188 0
189 -128 0
189 -104 0
-189 128 104 0
190 -37 0
190 -189 0
-190 37 189 0
-38 190 0
38 -190 0
191 -23 0
191 -3 0
-191 23 3 0
192 -79 0
192 -191 0
-192 79 191 0
-39 -192 0
39 192 0
-40 -108 0
40 108 0
-193 43 0
-193 -37 0
193 -43 37 0
-41 193 0
41 -193 0
-42 -69 0
42 69 0
-43 110 0
43 -110 0
194 -107 0
194 -34 0
-194 107 34 0
195 -104 0
195 -194 0
-195 104 194 0
196 -3 0
196 -195 0
-196 3 195 0
197 -69 0
197 -196 0
-197 69 196 0
198 -37 0
198 -197 0
-198 37 197 0
-44 -198 0
44 198 0
199 -87 0
199 -139 0
-199 87 139 0
200 -86 0
200 -199 0
-200 86 199 0
-201 67 0
-201 -200 0
201 -67 200 0
-45 201 0
45 -201 0
-46 80 0
46 -80 0
202 -57 0
202 -4 0
-202 57 4 0
-47 202 0
47 -202 0
-203 47 0
-203 -124 0
203 -47 124 0
-48 203 0
48 -203 0
204 -107 0
204 -45 0
-204 107 45 0
205 -37 0
205 -204 0
-205 37 204 0
-49 -205 0
49 205 0
206 -130 0
206 -129 0
-206 130 129 0
-50 206 0
50 -206 0
-51 53 0
51 -53 0
207 -124 0
207 -95 0
-207 124 95 0
-208 47 0
-208 -207 0
208 -47 207 0
-52 208 0
52 -208 0
209 -62 0
209 -80 0
-209 62 80 0
210 -63 0
210 -209 0
-210 63 209 0
-211 210 0
-211 -31 0
211 -210 31 0
-53 211 0
53 -211 0
-212 53 0
-212 -44 0
212 -53 44 0
-54 212 0
54 -212 0
213 -94 0
213 -126 0
-213 94 126 0
-55 213 0
55 -213 0
-56 26 0
56 -26 0
-57 98 0
57 -98 0
214 -103 0
214 -97 0
-214 103 97 0
-58 214 0
58 -214 0
-215 103 0
-215 -91 0
215 -103 91 0
-59 215 0
59 -215 0
216 -53 0
216 -40 0
-216 53 40 0
217 -69 0
217 -216 0
-217 69 216 0
218 -37 0
218 -217 0
-218 37 217 0
-219 218 0
-219 -29 0
219 -218 29 0
-60 219 0
60 -219 0
220 -67 0
220 -66 0
-220 67 66 0
-61 220 0
61 -220 0
221 -65 0
221 -42 0
-221 65 42 0
222 -64 0
222 -221 0
-222 64 221 0
223 -67 0
223 -222 0
-223 67 222 0
-62 223 0
62 -223 0
224 -70 0
224 -42 0
-224 70 42 0
225 -67 0
225 -224 0
-225 67 224 0
-63 225 0
63 -225 0
-64 97 0
64 -97 0
-65 97 0
65 -97 0
-66 -3 0
66 3 0
-67 133 0
67 -133 0
-68 45 0
68 -45 0
226 -61 0
226 -62 0
-226 61 62 0
-227 226 0
-227 -31 0
227 -226 31 0
-69 227 0
69 -227 0
-70 103 0
70 -103 0
-71 69 0
71 -69 0
228 -73 0
228 -88 0
-228 73 88 0
229 -3 0
229 -228 0
-229 3 228 0
230 -71 0
230 -229 0
-230 71 229 0
-231 230 0
-231 -107 0
231 -230 107 0
-72 231 0
72 -231 0
232 -78 0
232 -139 0
-232 78 139 0
-73 232 0
73 -232 0
233 -98 0
233 -68 0
-233 98 68 0
-234 233 0
-234 -37 0
234 -233 37 0
-74 234 0
74 -234 0
235 -131 0
235 -56 0
-235 131 56 0
-75 235 0
75 -235 0
236 -37 0
236 -69 0
-236 37 69 0
-76 236 0
76 -236 0
237 -134 0
237 -86 0
-237 134 86 0
238 -131 0
238 -237 0
-238 131 237 0
-239 238 0
-239 -44 0
239 -238 44 0
-77 239 0
77 -239 0
240 -22 0
240 -45 0
-240 22 45 0
241 -76 0
241 -240 0
-241 76 240 0
242 -99 0
242 -241 0
-242 99 241 0
-78 242 0
78 -242 0
-79 67 0
79 -67 0
243 -97 0
243 -19 0
-243 97 19 0
-80 243 0
80 -243 0
244 -137 0
244 -136 0
-244 137 136 0
-81 244 0
81 -244 0
-245 84 0
-245 -92 0
245 -84 92 0
-82 245 0
82 -245 0
-83 71 0
83 -71 0
246 -41 0
246 -49 0
-246 41 49 0
247 -55 0
247 -246 0
-247 55 246 0
-84 247 0
84 -247 0
-85 132 0
85 -132 0
248 -71 0
248 -82 0
-248 71 82 0
-86 248 0
86 -248 0
-87 92 0
87 -92 0
-249 120 0
-249 -105 0
249 -120 105 0
-88 249 0
88 -249 0
250 -78 0
250 -38 0
-250 78 38 0
-89 250 0
89 -250 0
-90 85 0
90 -85 0
251 -82 0
251 -14 0
-251 82 14 0
-91 251 0
91 -251 0
252 -93 0
252 -103 0
-252 93 103 0
253 -44 0
253 -17 0
-253 44 17 0
254 -127 0
254 -253 0
-254 127 253 0
-255 252 0
-255 -254 0
255 -252 254 0
-92 255 0
92 -255 0
-93 35 0
93 -35 0
-94 41 0
94 -41 0
-95 127 0
95 -127 0
256 -77 0
256 -104 0
-256 77 104 0
257 -18 0
257 -256 0
-257 18 256 0
-96 257 0
96 -257 0
258 -144 0
258 -34 0
-258 144 34 0
259 -138 0
259 -258 0
-259 138 258 0
260 -142 0
260 -259 0
-260 142 259 0
-261 260 0
-261 -5 0
261 -260 5 0
-97 261 0
97 -261 0
262 -100 0
262 -3 0
-262 100 3 0
263 -37 0
263 -262 0
-263 37 262 0
-264 55 0
-264 -263 0
264 -55 263 0
-98 264 0
98 -264 0
265 -76 0
265 -45 0
-265 76 45 0
266 -17 0
266 -265 0
-266 17 265 0
-267 266 0
-267 -129 0
267 -266 129 0
-99 267 0
99 -267 0
-100 -141 0
100 141 0
268 -97 0
268 -102 0
-268 97 102 0
269 -81 0
269 -268 0
-269 81 268 0
270 -122 0
270 -269 0
-270 122 269 0
-271 28 0
-271 -270 0
271 -28 270 0
-101 271 0
101 -271 0
-102 103 0
102 -103 0
272 -101 0
272 -14 0
-272 101 14 0
-103 272 0
103 -272 0
273 -37 0
273 -82 0
-273 37 82 0
-104 273 0
104 -273 0
274 -106 0
274 -75 0
-274 106 75 0
275 -69 0
275 -74 0
-275 69 74 0
-276 274 0
-276 -275 0
276 -274 275 0
-105 276 0
105 -276 0
-106 39 0
106 -39 0
277 -143 0
277 -82 0
-277 143 82 0
-107 277 0
107 -277 0
-108 109 0
108 -109 0
-109 -77 0
109 77 0
278 -47 0
278 -136 0
-278 47 136 0
279 -127 0
279 -278 0
-279 127 278 0
280 -105 0
280 -279 0
-280 105 279 0
-281 280 0
-281 -92 0
281 -280 92 0
-110 281 0
110 -281 0
-111 -3 0
111 3 0
282 -37 0
282 -36 0
-282 37 36 0
283 -18 0
283 -282 0
-283 18 282 0
-112 283 0
112 -283 0
284 -87 0
284 -111 0
-284 87 111 0
285 -44 0
285 -284 0
-285 44 284 0
286 -122 0
286 -285 0
-286 122 285 0
287 -37 0
287 -286 0
-287 37 286 0
288 -118 0
288 -287 0
-288 118 287 0
-289 1 0
-289 -288 0
289 -1 288 0
-113 289 0
113 -289 0
290 -136 0
290 -1 0
-290 136 1 0
291 -17 0
291 -290 0
-291 17 290 0
292 -37 0
292 -291 0
-292 37 291 0
293 -51 0
293 -292 0
-293 51 292 0
294 -123 0
294 -111 0
-294 123 111 0
295 -87 0
295 -294 0
-295 87 294 0
-296 293 0
-296 -295 0
296 -293 295 0
-114 296 0
114 -296 0
297 -136 0
297 -1 0
-297 136 1 0
298 -53 0
298 -297 0
-298 53 297 0
299 -69 0
299 -298 0
-299 69 298 0
300 -87 0
300 -111 0
-300 87 111 0
301 -120 0
301 -300 0
-301 120 300 0
302 -3 0
302 -301 0
-302 3 301 0
303 -44 0
303 -302 0
-303 44 302 0
304 -37 0
304 -303 0
-304 37 303 0
305 -118 0
305 -304 0
-305 118 304 0
-306 299 0
-306 -305 0
306 -299 305 0
-115 306 0
115 -306 0
307 -114 0
307 -113 0
-307 114 113 0
308 -117 0
308 -307 0
-308 117 307 0
309 -83 0
309 -308 0
-309 83 308 0
310 -37 0
310 -309 0
-310 37 309 0
311 -115 0
311 -310 0
-311 115 310 0
312 -120 0
312 -111 0
-312 120 111 0
313 -122 0
313 -312 0
-313 122 312 0
314 -118 0
314 -313 0
-314 118 313 0
-315 311 0
-315 -314 0
315 -311 314 0
-116 315 0
116 -315 0
316 -123 0
316 -111 0
-316 123 111 0
-317 1 0
-317 -316 0
317 -1 316 0
-117 317 0
117 -317 0
-118 119 0
118 -119 0
318 -116 0
318 -114 0
-318 116 114 0
319 -115 0
319 -318 0
-319 115 318 0
-119 319 0
119 -319 0
320 -122 0
320 -36 0
-320 122 36 0
321 -121 0
321 -320 0
-321 121 320 0
322 -7 0
322 -123 0
-322 7 123 0
323 -51 0
323 -322 0
-323 51 322 0
-324 321 0
-324 -323 0
324 -321 323 0
-120 324 0
120 -324 0
325 -116 0
325 -114 0
-325 116 114 0
326 -115 0
326 -325 0
-326 115 325 0
-121 326 0
121 -326 0
-122 120 0
122 -120 0
-123 120 0
123 -120 0
-124 125 0
124 -125 0
-125 129 0
125 -129 0
327 -85 0
327 -43 0
-327 85 43 0
-328 327 0
-328 -37 0
328 -327 37 0
-126 328 0
126 -328 0
-329 105 0
-329 -25 0
329 -105 25 0
-127 329 0
127 -329 0
330 -21 0
330 -104 0
-330 21 104 0
331 -71 0
331 -330 0
-331 71 330 0
-128 331 0
128 -331 0
332 -69 0
332 -45 0
-332 69 45 0
333 -52 0
333 -332 0
-333 52 332 0
334 -127 0
334 -333 0
-334 127 333 0
335 -91 0
335 -334 0
-335 91 334 0
-336 335 0
-336 -83 0
336 -335 83 0
-129 336 0
129 -336 0
-130 52 0
130 -52 0
337 -143 0
337 -48 0
-337 143 48 0
338 -53 0
338 -337 0
-338 53 337 0
339 -69 0
339 -338 0
-339 69 338 0
340 -37 0
340 -339 0
-340 37 339 0
341 -52 0
341 -340 0
-341 52 340 0
342 -127 0
342 -341 0
-342 127 341 0
343 -91 0
343 -342 0
-343 91 342 0
-344 343 0
-344 -88 0
344 -343 88 0
-131 344 0
131 -344 0
-132 47 0
132 -47 0
-345 140 0
-345 -69 0
345 -140 69 0
-133 345 0
133 -345 0
-346 26 0
-346 -79 0
346 -26 79 0
-134 346 0
134 -346 0
347 -78 0
347 -38 0
-347 78 38 0
348 -54 0
348 -347 0
-348 54 347 0
-135 348 0
135 -348 0
349 -120 0
349 -123 0
-349 120 123 0
350 -122 0
350 -349 0
-350 122 349 0
351 -118 0
351 -350 0
-351 118 350 0
-352 137 0
-352 -351 0
352 -137 351 0
-136 352 0
136 -352 0
353 -122 0
353 -123 0
-353 122 123 0
-354 135 0
-354 -353 0
354 -135 353 0
-137 354 0
137 -354 0
-138 -103 0
138 103 0
355 -83 0
355 -36 0
-355 83 36 0
356 -69 0
356 -355 0
-356 69 355 0
357 -91 0
357 -356 0
-357 91 356 0
-358 357 0
-358 -72 0
358 -357 72 0
-139 358 0
139 -358 0
359 -136 0
359 -48 0
-359 136 48 0
-140 359 0
140 -359 0
360 -104 0
360 -45 0
-360 104 45 0
361 -3 0
361 -360 0
-361 3 360 0
362 -37 0
362 -361 0
-362 37 361 0
-363 44 0
-363 -362 0
363 -44 362 0
-141 363 0
141 -363 0
-142 132 0
142 -132 0
364 -100 0
364 -104 0
-364 100 104 0
-365 364 0
-365 -2 0
365 -364 2 0
-143 365 0
143 -365 0
366 -84 0
366 -141 0
-366 84 141 0
-367 366 0
-367 -107 0
367 -366 107 0
-144 367 0
144 -367 0
