p cnf 602 1623
-184 11 0
-184 -134 0
184 -11 134 0
-1 184 0
1 -184 0
-2 24 0
2 -24 0
-3 64 0
3 -64 0
-4 -5 0
4 5 0
185 -75 0
185 -125 0
-185 75 125 0
186 -183 0
186 -185 0
-186 183 185 0
187 -114 0
187 -186 0
-187 114 186 0
188 -115 0
188 -121 0
-188 115 121 0
189 -11 0
189 -188 0
-189 11 188 0
-190 187 0
-190 -189 0
190 -187 189 0
-5 190 0
5 -190 0
191 -65 0
191 -181 0
-191 65 181 0
192 -151 0
192 -191 0
-192 151 191 0
193 -10 0
193 -192 0
-193 10 192 0
194 -150 0
194 -193 0
-194 150 193 0
195 -83 0
195 -194 0
-195 83 194 0
-6 195 0
6 -195 0
-7 52 0
7 -52 0
196 -50 0
196 -71 0
-196 50 71 0
197 -15 0
197 -196 0
-197 15 196 0
198 -59 0
198 -122 0
-198 59 122 0
-199 197 0
-199 -198 0
199 -197 198 0
-8 199 0
8 -199 0
-9 140 0
9 -140 0
200 -99 0
200 -82 0
-200 99 82 0
201 -64 0
201 -200 0
-201 64 200 0
-10 201 0
10 -201 0
202 -12 0
202 -14 0
-202 12 14 0
203 -25 0
203 -202 0
-203 25 202 0
-11 203 0
11 -203 0
204 -40 0
204 -1 0
-204 40 1 0
-12 204 0
12 -204 0
-13 112 0
13 -112 0
-205 43 0
-205 -11 0
205 -43 11 0
-14 205 0
14 -205 0
206 -50 0
206 -71 0
-206 50 71 0
207 -121 0
207 -120 0
-207 121 120 0
208 -13 0
208 -207 0
-208 13 207 0
209 -90 0
209 -208 0
-209 90 208 0
-210 206 0
-210 -209 0
210 -206 209 0
-15 210 0
15 -210 0
211 -66 0
211 -79 0
-211 66 79 0
212 -28 0
212 -211 0
-212 28 211 0
-16 212 0
16 -212 0
213 -112 0
213 -133 0
-213 112 133 0
214 -141 0
214 -213 0
-214 141 213 0
215 -5 0
215 -214 0
-215 5 214 0
-17 -215 0
17 215 0
216 -20 0
216 -175 0
-216 20 175 0
217 -22 0
217 -216 0
-217 22 216 0
218 -102 0
218 -21 0
-218 102 21 0
-219 217 0
-219 -218 0
219 -217 218 0
-18 219 0
18 -219 0
220 -20 0
220 -175 0
-220 20 175 0
221 -22 0
221 -220 0
-221 22 220 0
-222 221 0
-222 -102 0
222 -221 102 0
-19 222 0
19 -222 0
-20 175 0
20 -175 0
223 -17 0
223 -175 0
-223 17 175 0
224 -20 0
224 -223 0
-224 20 223 0
225 -22 0
225 -224 0
-225 22 224 0
-226 46 0
-226 -225 0
226 -46 225 0
-21 226 0
21 -226 0
227 -49 0
227 -50 0
-227 49 50 0
228 -29 0
228 -227 0
-228 29 227 0
-22 228 0
22 -228 0
229 -119 0
229 -181 0
-229 119 181 0
230 -109 0
230 -229 0
-230 109 229 0
231 -165 0
231 -230 0
-231 165 230 0
232 -14 0
232 -55 0
-232 14 55 0
233 -175 0
233 -232 0
-233 175 232 0
-234 231 0
-234 -233 0
234 -231 233 0
-23 234 0
23 -234 0
235 -157 0
235 -156 0
-235 157 156 0
-24 -235 0
24 235 0
236 -12 0
236 -13 0
-236 12 13 0
237 -5 0
237 -236 0
-237 5 236 0
238 -11 0
238 -237 0
-238 11 237 0
239 -44 0
239 -238 0
-239 44 238 0
-240 239 0
-240 -33 0
240 -239 33 0
-25 240 0
25 -240 0
241 -15 0
241 -71 0
-241 15 71 0
-242 241 0
-242 -90 0
242 -241 90 0
-26 242 0
26 -242 0
-27 11 0
27 -11 0
243 -30 0
243 -29 0
-243 30 29 0
244 -180 0
244 -23 0
-244 180 23 0
-245 243 0
-245 -244 0
245 -243 244 0
-28 245 0
28 -245 0
246 -41 0
246 -161 0
-246 41 161 0
-247 54 0
-247 -246 0
247 -54 246 0
-29 247 0
29 -247 0
248 -121 0
248 -55 0
-248 121 55 0
249 -7 0
249 -248 0
-249 7 248 0
250 -52 0
250 -249 0
-250 52 249 0
251 -180 0
251 -23 0
-251 180 23 0
-252 250 0
-252 -251 0
252 -250 251 0
-30 252 0
30 -252 0
253 -47 0
253 -63 0
-253 47 63 0
-254 253 0
-254 -175 0
254 -253 175 0
-31 254 0
31 -254 0
-32 -38 0
32 38 0
255 -69 0
255 -181 0
-255 69 181 0
256 -109 0
256 -255 0
-256 109 255 0
257 -165 0
257 -256 0
-257 165 256 0
258 -108 0
258 -257 0
-258 108 257 0
259 -141 0
259 -258 0
-259 141 258 0
260 -170 0
260 -259 0
-260 170 259 0
261 -35 0
261 -260 0
-261 35 260 0
262 -6 0
262 -261 0
-262 6 261 0
263 -40 0
263 -71 0
-263 40 71 0
264 -45 0
264 -263 0
-264 45 263 0
-265 262 0
-265 -264 0
265 -262 264 0
-33 265 0
33 -265 0
266 -35 0
266 -60 0
-266 35 60 0
267 -39 0
267 -171 0
-267 39 171 0
268 -38 0
268 -267 0
-268 38 267 0
-269 266 0
-269 -268 0
269 -266 268 0
-34 269 0
34 -269 0
270 -32 0
270 -60 0
-270 32 60 0
271 -108 0
271 -270 0
-271 108 270 0
272 -49 0
272 -71 0
-272 49 71 0
273 -43 0
273 -272 0
-273 43 272 0
274 -150 0
274 -273 0
-274 150 273 0
275 -44 0
275 -274 0
-275 44 274 0
-276 271 0
-276 -275 0
276 -271 275 0
-35 276 0
35 -276 0
-277 161 0
-277 -9 0
277 -161 9 0
-36 277 0
36 -277 0
278 -178 0
278 -158 0
-278 178 158 0
-37 -278 0
37 278 0
279 -175 0
279 -135 0
-279 175 135 0
280 -25 0
280 -279 0
-280 25 279 0
281 -108 0
281 -147 0
-281 108 147 0
282 -5 0
282 -281 0
-282 5 281 0
283 -103 0
283 -282 0
-283 103 282 0
-284 280 0
-284 -283 0
284 -280 283 0
-38 284 0
38 -284 0
285 -5 0
285 -108 0
-285 5 108 0
-286 171 0
-286 -285 0
286 -171 285 0
-39 286 0
39 -286 0
-40 -108 0
40 108 0
287 -5 0
287 -99 0
-287 5 99 0
-288 287 0
-288 -80 0
288 -287 80 0
-41 288 0
41 -288 0
289 -88 0
289 -89 0
-289 88 89 0
-42 289 0
42 -289 0
290 -11 0
290 -12 0
-290 11 12 0
-291 290 0
-291 -5 0
291 -290 5 0
-43 291 0
43 -291 0
292 -119 0
292 -125 0
-292 119 125 0
293 -12 0
293 -292 0
-293 12 292 0
294 -11 0
294 -293 0
-294 11 293 0
-44 294 0
44 -294 0
295 -176 0
295 -54 0
-295 176 54 0
296 -5 0
296 -295 0
-296 5 295 0
297 -123 0
297 -296 0
-297 123 296 0
-45 297 0
45 -297 0
298 -107 0
298 -122 0
-298 107 122 0
299 -149 0
299 -298 0
-299 149 298 0
300 -49 0
300 -299 0
-300 49 299 0
301 -47 0
301 -300 0
-301 47 300 0
302 -141 0
302 -301 0
-302 141 301 0
303 -5 0
303 -302 0
-303 5 302 0
304 -101 0
304 -303 0
-304 101 303 0
305 -11 0
305 -12 0
-305 11 12 0
-306 304 0
-306 -305 0
306 -304 305 0
-46 306 0
46 -306 0
-47 45 0
47 -45 0
-48 122 0
48 -122 0
-49 -90 0
49 90 0
307 -59 0
307 -15 0
-307 59 15 0
-50 307 0
50 -307 0
308 -45 0
308 -181 0
-308 45 181 0
309 -26 0
309 -50 0
-309 26 50 0
310 -49 0
310 -309 0
-310 49 309 0
311 -8 0
311 -310 0
-311 8 310 0
-312 308 0
-312 -311 0
312 -308 311 0
-51 312 0
51 -312 0
313 -19 0
313 -18 0
-313 19 18 0
-314 313 0
-314 -21 0
314 -313 21 0
-52 314 0
52 -314 0
-53 59 0
53 -59 0
315 -93 0
315 -49 0
-315 93 49 0
-316 13 0
-316 -315 0
316 -13 315 0
-54 316 0
54 -316 0
317 -19 0
317 -18 0
-317 19 18 0
318 -23 0
318 -21 0
-318 23 21 0
-319 317 0
-319 -318 0
319 -317 318 0
-55 319 0
55 -319 0
-320 170 0
-320 -108 0
320 -170 108 0
-56 320 0
56 -320 0
321 -64 0
321 -99 0
-321 64 99 0
322 -107 0
322 -321 0
-322 107 321 0
-323 322 0
-323 -147 0
323 -322 147 0
-57 323 0
57 -323 0
324 -64 0
324 -182 0
-324 64 182 0
-58 324 0
58 -324 0
325 -148 0
325 -50 0
-325 148 50 0
326 -67 0
326 -325 0
-326 67 325 0
327 -80 0
327 -181 0
-327 80 181 0
-328 326 0
-328 -327 0
328 -326 327 0
-59 328 0
59 -328 0
329 -72 0
329 -134 0
-329 72 134 0
-60 -329 0
60 329 0
-330 109 0
-330 -170 0
330 -109 170 0
-61 330 0
61 -330 0
331 -178 0
331 -158 0
-331 178 158 0
332 -73 0
332 -331 0
-332 73 331 0
333 -105 0
333 -332 0
-333 105 332 0
334 -132 0
334 -333 0
-334 132 333 0
-335 334 0
-335 -37 0
335 -334 37 0
-62 335 0
62 -335 0
336 -124 0
336 -146 0
-336 124 146 0
-337 5 0
-337 -336 0
337 -5 336 0
-63 337 0
63 -337 0
338 -58 0
338 -121 0
-338 58 121 0
-339 104 0
-339 -338 0
339 -104 338 0
-64 339 0
64 -339 0
340 -64 0
340 -162 0
-340 64 162 0
341 -178 0
341 -340 0
-341 178 340 0
342 -46 0
342 -341 0
-342 46 341 0
343 -141 0
343 -342 0
-343 141 342 0
-65 343 0
65 -343 0
344 -166 0
344 -58 0
-344 166 58 0
345 -49 0
345 -110 0
-345 49 110 0
346 -46 0
346 -345 0
-346 46 345 0
347 -5 0
347 -346 0
-347 5 346 0
348 -74 0
348 -347 0
-348 74 347 0
-349 344 0
-349 -348 0
349 -344 348 0
-66 349 0
66 -349 0
-67 -144 0
67 144 0
-350 70 0
-350 -64 0
350 -70 64 0
-68 350 0
68 -350 0
351 -122 0
351 -71 0
-351 122 71 0
352 -49 0
352 -351 0
-352 49 351 0
353 -167 0
353 -352 0
-353 167 352 0
-69 -353 0
69 353 0
354 -142 0
354 -145 0
-354 142 145 0
-70 354 0
70 -354 0
355 -64 0
355 -99 0
-355 64 99 0
356 -143 0
356 -355 0
-356 143 355 0
357 -59 0
357 -356 0
-357 59 356 0
358 -141 0
358 -357 0
-358 141 357 0
359 -5 0
359 -358 0
-359 5 358 0
-360 49 0
-360 -359 0
360 -49 359 0
-71 360 0
71 -360 0
361 -136 0
361 -135 0
-361 136 135 0
362 -111 0
362 -361 0
-362 111 361 0
-72 362 0
72 -362 0
363 -99 0
363 -182 0
-363 99 182 0
364 -64 0
364 -363 0
-364 64 363 0
365 -11 0
365 -364 0
-365 11 364 0
366 -111 0
366 -365 0
-366 111 365 0
-73 366 0
73 -366 0
367 -97 0
367 -54 0
-367 97 54 0
368 -120 0
368 -119 0
-368 120 119 0
369 -175 0
369 -368 0
-369 175 368 0
-370 367 0
-370 -369 0
370 -367 369 0
-74 370 0
74 -370 0
-371 112 0
-371 -178 0
371 -112 178 0
-75 371 0
75 -371 0
372 -6 0
372 -87 0
-372 6 87 0
-76 372 0
76 -372 0
-373 76 0
-373 -159 0
373 -76 159 0
-77 373 0
77 -373 0
374 -143 0
374 -64 0
-374 143 64 0
375 -74 0
375 -374 0
-375 74 374 0
-78 -375 0
78 375 0
376 -163 0
376 -164 0
-376 163 164 0
-79 376 0
79 -376 0
-80 82 0
80 -82 0
377 -159 0
377 -130 0
-377 159 130 0
-378 76 0
-378 -377 0
378 -76 377 0
-81 378 0
81 -378 0
379 -93 0
379 -92 0
-379 93 92 0
380 -112 0
380 -379 0
-380 112 379 0
-381 380 0
-381 -57 0
381 -380 57 0
-82 381 0
82 -381 0
-382 82 0
-382 -71 0
382 -82 71 0
-83 382 0
83 -382 0
383 -160 0
383 -129 0
-383 160 129 0
-84 383 0
84 -383 0
384 -13 0
384 -106 0
-384 13 106 0
-85 384 0
85 -384 0
-385 51 0
-385 -50 0
385 -51 50 0
-86 385 0
86 -385 0
-87 133 0
87 -133 0
386 -132 0
386 -140 0
-386 132 140 0
-88 386 0
88 -386 0
-387 140 0
-387 -124 0
387 -140 124 0
-89 387 0
89 -387 0
388 -50 0
388 -82 0
-388 50 82 0
389 -99 0
389 -388 0
-389 99 388 0
390 -64 0
390 -389 0
-390 64 389 0
391 -67 0
391 -390 0
-391 67 390 0
392 -37 0
392 -391 0
-392 37 391 0
-393 392 0
-393 -56 0
393 -392 56 0
-90 393 0
90 -393 0
394 -96 0
394 -97 0
-394 96 97 0
-91 394 0
91 -394 0
395 -97 0
395 -95 0
-395 97 95 0
396 -94 0
396 -395 0
-396 94 395 0
-92 396 0
92 -396 0
397 -100 0
397 -97 0
-397 100 97 0
-93 397 0
93 -397 0
-94 132 0
94 -132 0
-95 132 0
95 -132 0
-96 -5 0
96 5 0
398 -176 0
398 -169 0
-398 176 169 0
-97 398 0
97 -398 0
-98 74 0
98 -74 0
399 -91 0
399 -92 0
-399 91 92 0
-400 399 0
-400 -57 0
400 -399 57 0
-99 400 0
99 -400 0
-100 140 0
100 -140 0
-101 99 0
101 -99 0
401 -64 0
401 -82 0
-401 64 82 0
402 -32 0
402 -401 0
-402 32 401 0
403 -20 0
403 -71 0
-403 20 71 0
-404 402 0
-404 -403 0
404 -402 403 0
-102 404 0
102 -404 0
405 -121 0
405 -119 0
-405 121 119 0
406 -175 0
406 -405 0
-406 175 405 0
407 -109 0
407 -406 0
-407 109 406 0
408 -5 0
408 -407 0
-408 5 407 0
409 -101 0
409 -408 0
-409 101 408 0
410 -1 0
410 -50 0
-410 1 50 0
411 -40 0
411 -410 0
-411 40 410 0
412 -143 0
412 -411 0
-412 143 411 0
413 -12 0
413 -412 0
-413 12 412 0
414 -11 0
414 -413 0
-414 11 413 0
-415 409 0
-415 -414 0
415 -409 414 0
-103 415 0
103 -415 0
416 -98 0
416 -133 0
-416 98 133 0
-417 416 0
-417 -64 0
417 -416 64 0
-104 417 0
104 -417 0
418 -158 0
418 -86 0
-418 158 86 0
419 -165 0
419 -418 0
-419 165 418 0
420 -178 0
420 -419 0
-420 178 419 0
-105 420 0
105 -420 0
-106 166 0
106 -166 0
421 -64 0
421 -99 0
-421 64 99 0
-107 421 0
107 -421 0
422 -119 0
422 -82 0
-422 119 82 0
423 -51 0
423 -422 0
-423 51 422 0
424 -86 0
424 -423 0
-424 86 423 0
425 -165 0
425 -424 0
-425 165 424 0
426 -170 0
426 -425 0
-426 170 425 0
427 -111 0
427 -426 0
-427 111 426 0
-428 427 0
-428 -71 0
428 -427 71 0
-108 428 0
108 -428 0
429 -45 0
429 -107 0
-429 45 107 0
430 -136 0
430 -429 0
-430 136 429 0
431 -74 0
431 -430 0
-431 74 430 0
432 -111 0
432 -431 0
-432 111 431 0
-433 432 0
-433 -43 0
433 -432 43 0
-109 433 0
109 -433 0
-110 97 0
110 -97 0
-111 3 0
111 -3 0
434 -132 0
434 -36 0
-434 132 36 0
-112 434 0
112 -434 0
435 -172 0
435 -173 0
-435 172 173 0
436 -59 0
436 -435 0
-436 59 435 0
-113 436 0
113 -436 0
-437 117 0
-437 -127 0
437 -117 127 0
-114 437 0
114 -437 0
-115 -71 0
115 71 0
-116 101 0
116 -101 0
438 -84 0
438 -78 0
-438 84 78 0
439 -68 0
439 -438 0
-439 68 438 0
-117 439 0
117 -439 0
-118 168 0
118 -168 0
440 -27 0
440 -13 0
-440 27 13 0
441 -114 0
441 -440 0
-441 114 440 0
442 -101 0
442 -441 0
-442 101 441 0
-119 442 0
119 -442 0
-120 127 0
120 -127 0
-443 154 0
-443 -142 0
443 -154 142 0
-121 443 0
121 -443 0
444 -65 0
444 -109 0
-444 65 109 0
-122 444 0
122 -444 0
445 -113 0
445 -118 0
-445 113 118 0
-446 445 0
-446 -115 0
446 -445 115 0
-123 446 0
123 -446 0
447 -114 0
447 -28 0
-447 114 28 0
-124 447 0
124 -447 0
448 -11 0
448 -12 0
-448 11 12 0
-125 448 0
125 -448 0
-126 69 0
126 -69 0
449 -61 0
449 -140 0
-449 61 140 0
450 -161 0
450 -71 0
-450 161 71 0
451 -31 0
451 -450 0
-451 31 450 0
-452 449 0
-452 -451 0
452 -449 451 0
-127 452 0
127 -452 0
453 -142 0
453 -161 0
-453 142 161 0
454 -127 0
454 -129 0
-454 127 129 0
-455 453 0
-455 -454 0
455 -453 454 0
-128 455 0
128 -455 0
-129 68 0
129 -68 0
-456 161 0
-456 -123 0
456 -161 123 0
-130 456 0
130 -456 0
457 -32 0
457 -60 0
-457 32 60 0
458 -34 0
458 -457 0
-458 34 457 0
459 -33 0
459 -458 0
-459 33 458 0
-460 459 0
-460 -134 0
460 -459 134 0
-131 460 0
131 -460 0
461 -117 0
461 -174 0
-461 117 174 0
462 -179 0
462 -461 0
-462 179 461 0
463 -183 0
463 -462 0
-463 183 462 0
464 -59 0
464 -463 0
-464 59 463 0
-465 464 0
-465 -9 0
465 -464 9 0
-132 465 0
132 -465 0
466 -137 0
466 -64 0
-466 137 64 0
467 -5 0
467 -466 0
-467 5 466 0
-468 84 0
-468 -467 0
468 -84 467 0
-133 468 0
133 -468 0
469 -43 0
469 -38 0
-469 43 38 0
470 -44 0
470 -469 0
-470 44 469 0
471 -33 0
471 -34 0
-471 33 34 0
-472 470 0
-472 -471 0
472 -470 471 0
-134 472 0
134 -472 0
-135 -72 0
135 72 0
473 -74 0
473 -107 0
-473 74 107 0
474 -31 0
474 -473 0
-474 31 473 0
475 -123 0
475 -474 0
-475 123 474 0
-476 475 0
-476 -163 0
476 -475 163 0
-136 476 0
136 -476 0
-137 -177 0
137 177 0
477 -156 0
477 -139 0
-477 156 139 0
478 -132 0
478 -477 0
-478 132 477 0
479 -113 0
479 -478 0
-479 113 478 0
-480 53 0
-480 -479 0
480 -53 479 0
-138 480 0
138 -480 0
-139 140 0
139 -140 0
481 -138 0
481 -28 0
-481 138 28 0
-140 481 0
140 -481 0
482 -114 0
482 -64 0
-482 114 64 0
-141 482 0
141 -482 0
483 -105 0
483 -66 0
-483 105 66 0
484 -99 0
484 -104 0
-484 99 104 0
-485 483 0
-485 -484 0
485 -483 484 0
-142 485 0
142 -485 0
486 -114 0
486 -182 0
-486 114 182 0
-487 486 0
-487 -115 0
487 -486 115 0
-143 487 0
143 -487 0
-144 -108 0
144 108 0
488 -172 0
488 -161 0
-488 172 161 0
489 -76 0
489 -488 0
-489 76 488 0
490 -142 0
490 -489 0
-490 142 489 0
-491 490 0
-491 -127 0
491 -490 127 0
-145 491 0
145 -491 0
-146 -5 0
146 5 0
492 -64 0
492 -63 0
-492 64 63 0
493 -33 0
493 -492 0
-493 33 492 0
-147 493 0
147 -493 0
494 -2 0
494 -181 0
-494 2 181 0
495 -120 0
495 -71 0
-495 120 71 0
496 -64 0
496 -495 0
-496 64 495 0
497 -146 0
497 -496 0
-497 146 496 0
498 -156 0
498 -497 0
-498 156 497 0
499 -153 0
499 -498 0
-499 153 498 0
-500 494 0
-500 -499 0
500 -494 499 0
-148 500 0
148 -500 0
501 -2 0
501 -181 0
-501 2 181 0
502 -64 0
502 -501 0
-502 64 501 0
503 -172 0
503 -502 0
-503 172 502 0
504 -31 0
504 -503 0
-504 31 503 0
505 -80 0
505 -504 0
-505 80 504 0
506 -146 0
506 -120 0
-506 146 120 0
507 -157 0
507 -506 0
-507 157 506 0
-508 505 0
-508 -507 0
508 -505 507 0
-149 508 0
149 -508 0
509 -82 0
509 -181 0
-509 82 181 0
510 -2 0
510 -509 0
-510 2 509 0
511 -99 0
511 -510 0
-511 99 510 0
512 -172 0
512 -511 0
-512 172 511 0
513 -120 0
513 -71 0
-513 120 71 0
514 -154 0
514 -513 0
-514 154 513 0
515 -64 0
515 -514 0
-515 64 514 0
516 -146 0
516 -515 0
-516 146 515 0
517 -153 0
517 -516 0
-517 153 516 0
518 -5 0
518 -517 0
-518 5 517 0
-519 512 0
-519 -518 0
519 -512 518 0
-150 519 0
150 -519 0
520 -64 0
520 -148 0
-520 64 148 0
521 -152 0
521 -520 0
-521 152 520 0
522 -149 0
522 -521 0
-522 149 521 0
523 -150 0
523 -522 0
-523 150 522 0
524 -116 0
524 -523 0
-524 116 523 0
525 -146 0
525 -154 0
-525 146 154 0
526 -156 0
526 -525 0
-526 156 525 0
527 -153 0
527 -526 0
-527 153 526 0
-528 524 0
-528 -527 0
528 -524 527 0
-151 528 0
151 -528 0
529 -157 0
529 -146 0
-529 157 146 0
-530 2 0
-530 -529 0
530 -2 529 0
-152 530 0
152 -530 0
531 -151 0
531 -149 0
-531 151 149 0
532 -150 0
532 -531 0
-532 150 531 0
-153 532 0
153 -532 0
533 -149 0
533 -63 0
-533 149 63 0
534 -151 0
534 -533 0
-534 151 533 0
535 -156 0
535 -534 0
-535 156 534 0
536 -150 0
536 -535 0
-536 150 535 0
537 -157 0
537 -15 0
-537 157 15 0
538 -80 0
538 -537 0
-538 80 537 0
-539 536 0
-539 -538 0
539 -536 538 0
-154 539 0
154 -539 0
-540 49 0
-540 -126 0
540 -49 126 0
-155 540 0
155 -540 0
-156 154 0
156 -154 0
-157 154 0
157 -154 0
541 -54 0
541 -85 0
-541 54 85 0
542 -178 0
542 -541 0
-542 178 541 0
543 -112 0
543 -542 0
-543 112 542 0
-544 543 0
-544 -71 0
544 -543 71 0
-158 544 0
158 -544 0
-159 163 0
159 -163 0
545 -70 0
545 -118 0
-545 70 118 0
-546 545 0
-546 -64 0
546 -545 64 0
-160 546 0
160 -546 0
547 -142 0
547 -122 0
-547 142 122 0
-548 547 0
-548 -48 0
548 -547 48 0
-161 548 0
161 -548 0
549 -141 0
549 -42 0
-549 141 42 0
550 -101 0
550 -549 0
-550 101 549 0
-162 550 0
162 -550 0
551 -99 0
551 -161 0
-551 99 161 0
552 -81 0
552 -551 0
-552 81 551 0
553 -124 0
553 -552 0
-553 124 552 0
554 -74 0
554 -553 0
-554 74 553 0
-555 554 0
-555 -116 0
555 -554 116 0
-163 555 0
163 -555 0
-164 81 0
164 -81 0
556 -82 0
556 -182 0
-556 82 182 0
557 -77 0
557 -556 0
-557 77 556 0
558 -161 0
558 -557 0
-558 161 557 0
559 -99 0
559 -558 0
-559 99 558 0
560 -64 0
560 -559 0
-560 64 559 0
561 -81 0
561 -560 0
-561 81 560 0
562 -124 0
562 -561 0
-562 124 561 0
-563 562 0
-563 -121 0
563 -562 121 0
-165 563 0
165 -563 0
564 -115 0
564 -82 0
-564 115 82 0
565 -5 0
565 -133 0
-565 5 133 0
-566 564 0
-566 -565 0
566 -564 565 0
-166 566 0
166 -566 0
-167 -155 0
167 155 0
-567 76 0
-567 -43 0
567 -76 43 0
-168 567 0
168 -567 0
-568 176 0
-568 -99 0
568 -176 99 0
-169 568 0
169 -568 0
-569 51 0
-569 -110 0
569 -51 110 0
-170 569 0
170 -569 0
570 -65 0
570 -109 0
-570 65 109 0
571 -83 0
571 -570 0
-571 83 570 0
-171 571 0
171 -571 0
572 -156 0
572 -154 0
-572 156 154 0
573 -153 0
573 -572 0
-573 153 572 0
574 -157 0
574 -573 0
-574 157 573 0
-575 173 0
-575 -574 0
575 -173 574 0
-172 575 0
172 -575 0
576 -157 0
576 -156 0
-576 157 156 0
-577 171 0
-577 -576 0
577 -171 576 0
-173 577 0
173 -577 0
-174 -140 0
174 140 0
578 -63 0
578 -125 0
-578 63 125 0
579 -99 0
579 -578 0
-579 99 578 0
580 -17 0
580 -579 0
-580 17 579 0
581 -12 0
581 -580 0
-581 12 580 0
582 -43 0
582 -581 0
-582 43 581 0
583 -124 0
583 -582 0
-583 124 582 0
584 -11 0
584 -583 0
-584 11 583 0
585 -116 0
585 -584 0
-585 116 584 0
586 -44 0
586 -585 0
-586 44 585 0
587 -103 0
587 -14 0
-587 103 14 0
-588 586 0
-588 -587 0
588 -586 587 0
-175 588 0
175 -588 0
589 -172 0
589 -77 0
-589 172 77 0
-176 589 0
176 -589 0
590 -141 0
590 -64 0
-590 141 64 0
591 -5 0
591 -590 0
-591 5 590 0
592 -74 0
592 -591 0
-592 74 591 0
-593 71 0
-593 -592 0
593 -71 592 0
-177 593 0
177 -593 0
594 -64 0
594 -82 0
-594 64 82 0
-178 594 0
178 -594 0
-179 168 0
179 -168 0
595 -5 0
595 -23 0
-595 5 23 0
-596 595 0
-596 -55 0
596 -595 55 0
-180 596 0
180 -596 0
597 -85 0
597 -50 0
-597 85 50 0
598 -26 0
598 -597 0
-598 26 597 0
-181 -598 0
181 598 0
599 -141 0
599 -137 0
-599 141 137 0
-600 599 0
-600 -4 0
600 -599 4 0
-182 600 0
182 -600 0
601 -117 0
601 -177 0
-601 117 177 0
-602 601 0
-602 -143 0
602 -601 143 0
-183 602 0
183 -602 0
