c t pmc
p cnf 335 944
c p show 1 2 3 5 6 7 8 9 10 11 12 13 14 15 16 17 18 19 20 21 22 23 24 25 26 27 28 29 30 31 32 33 34 35 36 37 38 39 40 41 42 43 44 45 46 47 48 49 50 51 52 53 54 55 56 57 58 59 60 61 62 63 64 65 67 68 69 70 71 72 73 74 75 76 77 78 79 80 81 82 83 84 85 86 87 88 89 90 91 92 93 94 95 96 97 98 99 100 101 102 103 104 105 106 107 108 109 110 111 113 114 115 117 118 119 120 121 122 123 124 125 126 127 128 129 130 131 132 133 134 135 136 137 138 139 140 141 143 144 145 146 147 148 149 150 151 152 153 154 155 156 157 158 159 160 161 162 163 164 165 166 167 168 169 170 171 172 173 174 175 176 177 178 179 180 181 182 183 184 185 186 187 188 189 190 191 192 193 194 195 196 197 198 199 200 201 202 203 204 205 206 207 208 209 210 211 212 213 214 215 216 217 218 219 220 221 222 223 224 225 226 227 228 229 230 231 232 234 235 236 237 238 239 240 241 242 243 244 245 246 247 248 249 250 251 252 253 254 255 256 257 258 259 260 261 262 263 264 265 266 267 268 269 270 271 272 273 274 275 276 277 278 279 280 281 282 283 284 285 286 287 288 289 290 291 292 293 294 295 296 297 298 299 300 301 302 303 304 305 306 307 308 309 310 311 312 313 314 315 316 317 318 319 320 321 322 323 324 325 326 327 328 329 330 331 332 333 334 335 0
1 0
1 -2 0
1 -65 0
1 -141 0
1 -154 0
1 -195 0
1 -272 0
1 -284 0
1 -303 0
-304 1 0
1 -305 0
1 -306 0
1 -307 0
1 -308 0
1 -309 0
1 -310 0
1 -311 0
1 -312 0
1 -313 0
1 -314 0
1 -315 0
1 -316 0
1 -317 0
1 -318 0
1 -319 0
1 -320 0
1 -321 0
1 -322 0
1 -323 0
1 -324 0
1 -325 0
1 -326 0
1 -327 0
1 -328 0
1 -329 0
1 -330 0
1 -331 0
1 -332 0
1 -333 0
1 -334 0
1 -335 0
-3 2 0
-39 2 0
-48 2 0
3 -2 0
39 -2 0
3 -4 0
3 -7 0
-3 4 0
4 -5 0
4 -6 0
-4 5 6 0
7 -8 0
7 -19 0
-7 19 8 0
-9 8 0
8 -10 0
8 -13 0
-17 8 0
-18 8 0
-8 10 0
-8 13 0
-11 10 0
-12 10 0
11 12 -10 0
-11 -12 0
-14 13 0
-15 13 0
-16 13 0
15 14 16 -13 0
-15 -14 0
-14 -16 0
-15 -16 0
-20 19 0
-23 19 0
19 -27 0
-34 19 0
20 -19 0
34 -19 0
20 -21 0
20 -22 0
-20 22 21 0
-22 -21 0
-24 23 0
-25 23 0
23 -26 0
-28 27 0
-29 27 0
-30 27 0
-31 27 0
31 -27 0
31 -32 0
31 -33 0
-31 32 33 0
-32 -33 0
-35 34 0
-36 34 0
-37 34 0
-38 34 0
35 -34 0
39 -40 0
39 -41 0
-39 41 0
41 -42 0
41 -43 0
41 -44 0
41 -45 0
41 -46 0
41 -47 0
-41 43 46 47 42 44 45 0
-43 -42 0
-42 -44 0
-42 -45 0
-46 -42 0
-47 -42 0
-43 -44 0
-43 -45 0
-43 -46 0
-43 -47 0
-44 -45 0
-46 -44 0
-47 -44 0
-46 -45 0
-47 -45 0
-46 -47 0
-49 48 0
-50 48 0
50 49 -48 0
50 -51 0
50 -53 0
50 -55 0
50 -60 0
-50 51 0
-50 53 0
-50 55 0
-50 60 0
51 -52 0
-51 52 0
-54 53 0
54 -53 0
-56 55 0
-59 55 0
56 -55 0
56 -57 0
-58 56 0
58 -56 57 0
-58 -57 0
60 -61 0
60 -62 0
60 -63 0
60 -64 0
-60 64 63 61 62 0
-61 -62 0
-63 -61 0
-64 -61 0
-63 -62 0
-64 -62 0
-64 -63 0
65 -66 0
65 -138 0
-65 66 0
-67 66 0
66 -70 0
-101 66 0
66 -110 0
67 101 -66 70 110 0
67 -68 0
67 -69 0
-67 68 69 0
-71 70 0
-72 70 0
-73 70 0
70 -74 0
70 -99 0
70 -100 0
71 -70 0
72 -70 0
-70 74 0
-75 74 0
-76 74 0
-77 74 0
-78 74 0
-79 74 0
-80 74 0
-81 74 0
-82 74 0
-83 74 0
-84 74 0
-85 74 0
-86 74 0
-87 74 0
-88 74 0
-89 74 0
-90 74 0
-91 74 0
-92 74 0
-93 74 0
-94 74 0
-95 74 0
-96 74 0
-97 74 0
-98 74 0
94 86 85 82 79 77 78 96 98 95 90 75 91 80 81 84 92 97 76 89 83 93 87 88 -74 0
-75 -76 0
-77 -75 0
-78 -75 0
-79 -75 0
-75 -80 0
-75 -81 0
-82 -75 0
-75 -83 0
-75 -84 0
-85 -75 0
-86 -75 0
-75 -87 0
-75 -88 0
-75 -89 0
-90 -75 0
-75 -91 0
-75 -92 0
-75 -93 0
-94 -75 0
-95 -75 0
-96 -75 0
-75 -97 0
-98 -75 0
-77 -76 0
-78 -76 0
-79 -76 0
-80 -76 0
-81 -76 0
-82 -76 0
-76 -83 0
-84 -76 0
-85 -76 0
-86 -76 0
-76 -87 0
-76 -88 0
-76 -89 0
-90 -76 0
-91 -76 0
-92 -76 0
-76 -93 0
-94 -76 0
-95 -76 0
-96 -76 0
-97 -76 0
-98 -76 0
-77 -78 0
-79 -77 0
-77 -80 0
-77 -81 0
-82 -77 0
-77 -83 0
-77 -84 0
-85 -77 0
-86 -77 0
-77 -87 0
-77 -88 0
-77 -89 0
-77 -90 0
-77 -91 0
-77 -92 0
-77 -93 0
-94 -77 0
-77 -95 0
-77 -96 0
-77 -97 0
-77 -98 0
-79 -78 0
-78 -80 0
-78 -81 0
-82 -78 0
-78 -83 0
-78 -84 0
-85 -78 0
-86 -78 0
-78 -87 0
-78 -88 0
-78 -89 0
-78 -90 0
-78 -91 0
-78 -92 0
-78 -93 0
-94 -78 0
-78 -95 0
-78 -96 0
-78 -97 0
-78 -98 0
-79 -80 0
-79 -81 0
-82 -79 0
-79 -83 0
-79 -84 0
-85 -79 0
-86 -79 0
-79 -87 0
-79 -88 0
-79 -89 0
-79 -90 0
-79 -91 0
-79 -92 0
-79 -93 0
-94 -79 0
-79 -95 0
-79 -96 0
-79 -97 0
-79 -98 0
-80 -81 0
-82 -80 0
-80 -83 0
-80 -84 0
-85 -80 0
-86 -80 0
-80 -87 0
-80 -88 0
-80 -89 0
-90 -80 0
-91 -80 0
-80 -92 0
-80 -93 0
-94 -80 0
-95 -80 0
-96 -80 0
-80 -97 0
-98 -80 0
-82 -81 0
-81 -83 0
-81 -84 0
-85 -81 0
-86 -81 0
-81 -87 0
-81 -88 0
-81 -89 0
-90 -81 0
-91 -81 0
-81 -92 0
-81 -93 0
-94 -81 0
-95 -81 0
-96 -81 0
-81 -97 0
-98 -81 0
-82 -83 0
-82 -84 0
-85 -82 0
-86 -82 0
-82 -87 0
-82 -88 0
-82 -89 0
-82 -90 0
-82 -91 0
-82 -92 0
-82 -93 0
-94 -82 0
-82 -95 0
-82 -96 0
-82 -97 0
-82 -98 0
-84 -83 0
-85 -83 0
-86 -83 0
-83 -87 0
-83 -88 0
-89 -83 0
-90 -83 0
-91 -83 0
-92 -83 0
-83 -93 0
-94 -83 0
-95 -83 0
-96 -83 0
-97 -83 0
-98 -83 0
-85 -84 0
-86 -84 0
-84 -87 0
-84 -88 0
-84 -89 0
-90 -84 0
-91 -84 0
-84 -92 0
-84 -93 0
-94 -84 0
-95 -84 0
-96 -84 0
-84 -97 0
-98 -84 0
-86 -85 0
-85 -87 0
-85 -88 0
-85 -89 0
-85 -90 0
-85 -91 0
-85 -92 0
-85 -93 0
-94 -85 0
-85 -95 0
-85 -96 0
-85 -97 0
-85 -98 0
-86 -87 0
-86 -88 0
-86 -89 0
-86 -90 0
-86 -91 0
-86 -92 0
-86 -93 0
-94 -86 0
-86 -95 0
-86 -96 0
-86 -97 0
-86 -98 0
-87 -88 0
-89 -87 0
-90 -87 0
-91 -87 0
-92 -87 0
-93 -87 0
-94 -87 0
-95 -87 0
-96 -87 0
-97 -87 0
-98 -87 0
-89 -88 0
-90 -88 0
-91 -88 0
-92 -88 0
-93 -88 0
-94 -88 0
-95 -88 0
-96 -88 0
-97 -88 0
-98 -88 0
-90 -89 0
-91 -89 0
-92 -89 0
-89 -93 0
-94 -89 0
-95 -89 0
-96 -89 0
-97 -89 0
-98 -89 0
-90 -91 0
-90 -92 0
-90 -93 0
-94 -90 0
-95 -90 0
-96 -90 0
-90 -97 0
-98 -90 0
-91 -92 0
-91 -93 0
-94 -91 0
-95 -91 0
-96 -91 0
-91 -97 0
-98 -91 0
-92 -93 0
-94 -92 0
-95 -92 0
-96 -92 0
-92 -97 0
-98 -92 0
-94 -93 0
-95 -93 0
-96 -93 0
-97 -93 0
-98 -93 0
-94 -95 0
-94 -96 0
-94 -97 0
-94 -98 0
-96 -95 0
-95 -97 0
-98 -95 0
-96 -97 0
-96 -98 0
-98 -97 0
-102 101 0
101 -107 0
102 -103 0
102 -104 0
102 -105 0
102 -106 0
-102 106 104 103 105 0
-104 -103 0
-103 -105 0
-106 -103 0
-104 -105 0
-106 -104 0
-106 -105 0
-108 107 0
-109 107 0
-111 110 0
110 -137 0
111 -110 0
111 -112 0
111 -115 0
-111 112 0
112 -113 0
112 -114 0
-112 113 114 0
-113 -114 0
115 -116 0
115 -119 0
115 -123 0
-136 115 0
-115 116 0
116 -117 0
116 -118 0
-116 117 118 0
-120 119 0
-121 119 0
-122 119 0
122 120 121 -119 0
-120 -121 0
-122 -120 0
-122 -121 0
123 -124 0
123 -131 0
123 -132 0
-123 124 0
124 -125 0
124 -126 0
124 -127 0
124 -128 0
124 -129 0
124 -130 0
-124 126 125 129 130 127 128 0
-126 -125 0
-125 -127 0
-125 -128 0
-125 -129 0
-125 -130 0
-126 -127 0
-126 -128 0
-126 -129 0
-126 -130 0
-127 -128 0
-129 -127 0
-130 -127 0
-129 -128 0
-130 -128 0
-129 -130 0
-133 132 0
-134 132 0
-135 132 0
-139 138 0
-140 138 0
141 -142 0
-152 141 0
-141 142 0
-143 142 0
-145 142 0
145 143 -142 0
143 -144 0
145 -146 0
-145 146 0
-147 146 0
-148 146 0
-149 146 0
-150 146 0
-151 146 0
147 149 150 151 148 -146 0
-153 152 0
153 -152 0
154 -155 0
-165 154 0
-185 154 0
154 -188 0
-156 155 0
-157 155 0
-158 155 0
155 -159 0
155 -160 0
-161 155 0
-162 155 0
155 -163 0
-164 155 0
158 161 156 164 157 162 -155 163 159 160 0
-156 -157 0
-158 -156 0
-156 -159 0
-156 -160 0
-161 -156 0
-156 -162 0
-156 -163 0
-156 -164 0
-158 -157 0
-157 -159 0
-157 -160 0
-161 -157 0
-157 -162 0
-157 -163 0
-164 -157 0
-158 -159 0
-158 -160 0
-158 -161 0
-158 -162 0
-158 -163 0
-158 -164 0
-159 -160 0
-161 -159 0
-162 -159 0
-163 -159 0
-164 -159 0
-161 -160 0
-162 -160 0
-163 -160 0
-164 -160 0
-161 -162 0
-161 -163 0
-161 -164 0
-162 -163 0
-164 -162 0
-164 -163 0
165 -166 0
165 -167 0
-165 167 0
-168 167 0
-172 167 0
-180 167 0
168 180 172 -167 0
168 -169 0
-170 169 0
-171 169 0
172 -173 0
-176 172 0
-179 172 0
-172 173 0
176 -172 0
-174 173 0
-175 173 0
174 175 -173 0
-174 -175 0
176 -177 0
176 -178 0
-176 177 178 0
-177 -178 0
180 -181 0
-184 180 0
-182 181 0
-183 181 0
182 183 -181 0
-182 -183 0
-186 185 0
185 -187 0
-189 188 0
-194 188 0
-190 189 0
189 -191 0
189 -192 0
-193 189 0
190 -189 0
-189 191 0
-189 192 0
193 -189 0
-196 195 0
-216 195 0
-252 195 0
-254 195 0
195 -256 0
196 -195 0
216 -195 0
196 -197 0
196 -198 0
-196 198 0
-199 198 0
-207 198 0
-212 198 0
212 207 199 -198 0
199 -200 0
-203 199 0
-206 199 0
-199 200 0
203 -199 0
-201 200 0
-202 200 0
202 201 -200 0
-202 -201 0
203 -204 0
203 -205 0
-203 205 204 0
-205 -204 0
207 -208 0
-211 207 0
-209 208 0
-210 208 0
209 210 -208 0
-209 -210 0
212 -213 0
-214 213 0
-215 213 0
216 -217 0
216 -218 0
216 -219 0
216 -220 0
216 -221 0
-216 218 0
-222 221 0
-246 221 0
-249 221 0
222 -223 0
-224 222 0
222 -225 0
222 -226 0
226 -227 0
-228 226 0
-232 226 0
-243 226 0
232 -226 0
228 -229 0
-230 228 0
228 -231 0
232 -233 0
232 -236 0
232 -242 0
-232 233 0
-232 236 0
233 -234 0
233 -235 0
-233 234 235 0
-234 -235 0
236 -237 0
236 -238 0
236 -239 0
236 -240 0
236 -241 0
-236 240 241 238 239 237 0
-238 -237 0
-239 -237 0
-240 -237 0
-241 -237 0
-238 -239 0
-240 -238 0
-241 -238 0
-240 -239 0
-241 -239 0
-240 -241 0
-244 243 0
-245 243 0
-247 246 0
246 -248 0
249 -250 0
-251 249 0
252 -253 0
254 -255 0
-257 256 0
-258 256 0
-271 256 0
258 -259 0
-270 258 0
-258 259 0
270 -258 0
-260 259 0
-267 259 0
260 -259 0
267 -259 0
260 -261 0
260 -264 0
-260 261 0
-260 264 0
261 -262 0
-263 261 0
263 -261 262 0
-263 -262 0
264 -265 0
-266 264 0
266 -264 265 0
-266 -265 0
267 -268 0
267 -269 0
-267 269 268 0
-269 -268 0
272 -273 0
-281 272 0
-272 273 0
-274 273 0
-275 273 0
-280 273 0
275 -273 0
275 -276 0
275 -277 0
275 -278 0
275 -279 0
-275 276 278 279 277 0
-276 -277 0
-276 -278 0
-276 -279 0
-278 -277 0
-279 -277 0
-278 -279 0
-282 281 0
-283 281 0
284 -285 0
284 -288 0
-289 284 0
284 -298 0
284 -300 0
-284 288 0
289 -284 0
285 -286 0
285 -287 0
-285 286 0
289 -290 0
289 -291 0
-289 291 0
291 -292 0
291 -293 0
291 -294 0
291 -295 0
291 -296 0
291 -297 0
-291 295 293 292 297 296 294 0
-293 -292 0
-292 -294 0
-295 -292 0
-292 -296 0
-292 -297 0
-293 -294 0
-295 -293 0
-293 -296 0
-293 -297 0
-295 -294 0
-296 -294 0
-297 -294 0
-295 -296 0
-295 -297 0
-297 -296 0
298 -299 0
300 -301 0
-302 300 0
309 -16 0
326 -289 0
331 -197 0
-310 184 211 0
-304 176 203 0
303 -300 0
315 -298 0
324 -270 0
-325 216 288 0
320 -175 0
-331 166 197 0
308 -266 0
-322 165 196 0
-306 179 206 0
-309 16 178 204 265 0
-308 15 177 205 266 269 0
325 -288 0
-334 172 199 0
304 -176 0
317 -283 0
317 -302 0
309 -178 0
-318 108 170 214 224 230 0
308 -15 0
322 -196 0
303 -48 0
303 -256 0
332 -198 0
308 -269 0
306 -179 0
327 -100 0
317 -140 0
324 -193 0
318 -224 0
-333 168 212 222 228 0
-305 37 18 0
329 -301 0
325 -216 0
315 -254 0
307 -208 0
310 -211 0
333 -228 0
326 -39 0
-332 167 198 0
-327 100 287 0
-316 220 227 0
319 -171 0
318 -214 0
323 -255 0
333 -212 0
-317 49 140 153 194 271 283 302 0
-315 185 254 298 0
327 -287 0
308 -205 0
303 -188 0
318 -170 0
-319 109 171 215 225 231 0
323 -299 0
305 -37 0
309 -204 0
323 -187 0
303 -152 0
317 -49 0
328 -291 0
321 -202 0
319 -225 0
-328 291 41 0
313 -221 0
317 -153 0
308 -177 0
313 -226 0
-321 174 202 0
-313 221 226 0
306 -206 0
319 -231 0
303 -281 0
334 -172 0
315 -185 0
305 -18 0
332 -167 0
303 -138 0
317 -271 0
318 -230 0
334 -199 0
-303 48 138 152 188 256 281 300 0
319 -109 0
309 -265 0
-307 181 208 0
320 -201 0
333 -222 0
307 -181 0
317 -194 0
329 -146 0
-329 146 301 0
318 -108 0
-323 255 299 187 0
-324 270 193 0
-326 289 39 0
310 -184 0
304 -203 0
321 -174 0
331 -166 0
-320 175 201 0
322 -165 0
333 -168 0
328 -41 0
316 -227 0
319 -215 0
306 0
81 0
-54 0
