c t pmc
p cnf 263 663
c p show 1 2 3 4 5 6 7 8 9 10 11 12 13 14 15 16 17 18 19 20 21 22 23 24 25 26 27 28 29 30 31 32 33 34 35 36 37 38 39 40 41 42 43 44 45 46 47 48 49 50 51 52 53 54 55 56 57 58 59 60 61 62 63 64 65 66 67 68 69 70 71 72 73 74 75 76 77 78 79 80 82 83 84 85 86 87 88 89 91 92 93 94 95 96 97 98 99 100 101 102 103 104 105 106 107 108 109 110 111 112 113 114 115 116 117 118 119 120 121 122 123 124 125 126 127 128 129 130 131 132 133 134 135 136 137 138 139 140 141 142 143 144 145 146 147 148 149 150 151 152 153 154 155 156 157 158 159 160 161 162 163 164 165 166 167 168 169 170 171 172 173 174 175 176 177 178 179 180 181 182 183 184 185 186 187 188 189 190 191 192 193 194 195 196 197 198 199 200 201 202 203 204 205 206 207 208 209 210 211 212 213 214 215 216 217 218 219 220 221 222 223 224 225 226 227 228 229 230 231 232 233 234 235 236 237 238 239 240 241 242 243 244 245 246 247 248 249 250 251 252 253 254 255 256 257 258 259 260 261 262 263 0
1 0
1 -2 0
1 -33 0
1 -55 0
1 -71 0
1 -189 0
1 -245 0
1 -246 0
1 -247 0
1 -248 0
1 -249 0
1 -250 0
1 -251 0
1 -252 0
1 -253 0
1 -254 0
1 -255 0
1 -256 0
1 -257 0
1 -258 0
1 -259 0
1 -260 0
-261 1 0
1 -262 0
1 -263 0
2 -3 0
2 -20 0
-2 3 0
-2 20 0
-4 3 0
3 -11 0
-16 3 0
4 -3 0
-3 11 0
16 -3 0
4 -5 0
4 -6 0
4 -7 0
4 -8 0
4 -9 0
4 -10 0
-4 10 6 8 9 5 7 0
-6 -5 0
-5 -7 0
-8 -5 0
-9 -5 0
-10 -5 0
-6 -7 0
-6 -8 0
-6 -9 0
-10 -6 0
-8 -7 0
-9 -7 0
-10 -7 0
-8 -9 0
-10 -8 0
-10 -9 0
-12 11 0
-13 11 0
-14 11 0
-15 11 0
12 13 15 14 -11 0
-12 -13 0
-12 -14 0
-12 -15 0
-13 -14 0
-13 -15 0
-15 -14 0
16 -17 0
16 -18 0
16 -19 0
-16 18 17 19 0
-18 -17 0
-17 -19 0
-18 -19 0
-21 20 0
20 -22 0
20 -25 0
20 -28 0
-29 20 0
20 -30 0
-20 22 0
-20 25 0
-20 30 0
-23 22 0
22 -24 0
23 -22 24 0
-23 -24 0
-26 25 0
-27 25 0
27 26 -25 0
-27 -26 0
-31 30 0
-32 30 0
31 32 -30 0
-31 -32 0
-34 33 0
33 -44 0
33 -54 0
34 -33 0
34 -35 0
34 -36 0
-34 36 0
36 -37 0
36 -38 0
36 -39 0
36 -40 0
36 -41 0
-42 36 0
36 -43 0
42 -36 39 38 41 37 40 43 0
-38 -37 0
-39 -37 0
-37 -40 0
-41 -37 0
-42 -37 0
-37 -43 0
-39 -38 0
-38 -40 0
-38 -41 0
-42 -38 0
-38 -43 0
-39 -40 0
-39 -41 0
-42 -39 0
-39 -43 0
-41 -40 0
-42 -40 0
-40 -43 0
-42 -41 0
-41 -43 0
-42 -43 0
44 -45 0
-44 45 0
45 -46 0
45 -47 0
45 -48 0
45 -49 0
45 -50 0
45 -51 0
45 -52 0
45 -53 0
-45 50 49 48 51 47 46 52 53 0
-47 -46 0
-48 -46 0
-49 -46 0
-50 -46 0
-51 -46 0
-46 -52 0
-46 -53 0
-48 -47 0
-49 -47 0
-50 -47 0
-51 -47 0
-47 -52 0
-47 -53 0
-49 -48 0
-50 -48 0
-48 -51 0
-48 -52 0
-48 -53 0
-50 -49 0
-49 -51 0
-49 -52 0
-49 -53 0
-50 -51 0
-50 -52 0
-50 -53 0
-51 -52 0
-51 -53 0
-52 -53 0
55 -56 0
55 -61 0
55 -62 0
55 -65 0
55 -66 0
55 -67 0
-55 56 0
-55 61 0
-55 62 0
-55 66 0
-55 67 0
-57 56 0
-58 56 0
-59 56 0
56 -60 0
58 59 57 -56 60 0
-58 -57 0
-59 -57 0
-57 -60 0
-58 -59 0
-58 -60 0
-59 -60 0
-63 62 0
-64 62 0
63 64 -62 0
-63 -64 0
-68 67 0
-69 67 0
-70 67 0
70 69 68 -67 0
-69 -68 0
-70 -68 0
-70 -69 0
-72 71 0
-75 71 0
-78 71 0
71 -81 0
-84 71 0
71 -87 0
-88 71 0
72 -71 0
75 -71 0
-71 81 0
84 -71 0
-73 72 0
-74 72 0
74 73 -72 0
-74 -73 0
-76 75 0
-77 75 0
76 77 -75 0
-76 -77 0
78 -79 0
78 -80 0
-78 79 80 0
-79 -80 0
-82 81 0
81 -83 0
82 -81 83 0
-82 -83 0
84 -85 0
-86 84 0
86 -84 85 0
-86 -85 0
88 -89 0
88 -109 0
-88 89 0
89 -90 0
-104 89 0
-89 90 0
-91 90 0
-96 90 0
91 96 -90 0
-91 -96 0
91 -92 0
91 -93 0
-94 93 0
-95 93 0
94 95 -93 0
-94 -95 0
-97 96 0
-98 96 0
96 -101 0
98 -96 0
-96 101 0
98 -99 0
98 -100 0
-98 100 99 0
-100 -99 0
-102 101 0
-103 101 0
102 103 -101 0
-102 -103 0
-105 104 0
104 -108 0
105 -104 108 0
-105 -108 0
105 -106 0
105 -107 0
-105 106 107 0
-106 -107 0
-110 109 0
-115 109 0
-118 109 0
109 -131 0
109 -132 0
109 -137 0
109 -146 0
109 -163 0
-188 109 0
-111 110 0
-113 110 0
111 113 -110 0
-111 -113 0
-112 111 0
112 -111 0
-114 113 0
114 -113 0
-116 115 0
116 -115 0
-117 116 0
117 -116 0
-119 118 0
118 -121 0
-123 118 0
118 -125 0
-127 118 0
118 -129 0
119 123 127 -118 125 121 129 0
-119 -121 0
-119 -123 0
-119 -125 0
-119 -127 0
-119 -129 0
-123 -121 0
-125 -121 0
-127 -121 0
-121 -129 0
-123 -125 0
-123 -127 0
-123 -129 0
-127 -125 0
-125 -129 0
-127 -129 0
119 -120 0
-119 120 0
-122 121 0
122 -121 0
123 -124 0
-123 124 0
-126 125 0
126 -125 0
127 -128 0
-127 128 0
-130 129 0
130 -129 0
-133 132 0
-135 132 0
133 135 -132 0
-133 -135 0
-134 133 0
134 -133 0
-136 135 0
136 -135 0
-138 137 0
-140 137 0
-142 137 0
-144 137 0
142 140 138 144 -137 0
-140 -138 0
-142 -138 0
-138 -144 0
-142 -140 0
-140 -144 0
-142 -144 0
-139 138 0
139 -138 0
140 -141 0
-140 141 0
142 -143 0
-142 143 0
-145 144 0
145 -144 0
-147 146 0
-149 146 0
-151 146 0
146 -153 0
-155 146 0
-157 146 0
146 -159 0
-161 146 0
149 161 151 147 157 155 -146 153 159 0
-149 -147 0
-151 -147 0
-147 -153 0
-147 -155 0
-147 -157 0
-147 -159 0
-161 -147 0
-149 -151 0
-149 -153 0
-149 -155 0
-149 -157 0
-149 -159 0
-149 -161 0
-151 -153 0
-151 -155 0
-151 -157 0
-151 -159 0
-161 -151 0
-155 -153 0
-157 -153 0
-153 -159 0
-161 -153 0
-157 -155 0
-155 -159 0
-161 -155 0
-157 -159 0
-161 -157 0
-161 -159 0
-148 147 0
148 -147 0
149 -150 0
-149 150 0
-152 151 0
152 -151 0
-154 153 0
154 -153 0
-156 155 0
156 -155 0
-158 157 0
158 -157 0
-160 159 0
160 -159 0
-162 161 0
162 -161 0
-164 163 0
-166 163 0
-168 163 0
-170 163 0
-172 163 0
-174 163 0
-176 163 0
-178 163 0
-180 163 0
-182 163 0
-184 163 0
-186 163 0
174 184 186 168 172 170 178 176 182 180 164 166 -163 0
-164 -166 0
-168 -164 0
-170 -164 0
-172 -164 0
-174 -164 0
-176 -164 0
-178 -164 0
-180 -164 0
-182 -164 0
-184 -164 0
-186 -164 0
-168 -166 0
-170 -166 0
-172 -166 0
-174 -166 0
-176 -166 0
-178 -166 0
-180 -166 0
-182 -166 0
-184 -166 0
-186 -166 0
-168 -170 0
-168 -172 0
-174 -168 0
-168 -176 0
-168 -178 0
-168 -180 0
-168 -182 0
-184 -168 0
-186 -168 0
-172 -170 0
-174 -170 0
-170 -176 0
-170 -178 0
-170 -180 0
-170 -182 0
-184 -170 0
-186 -170 0
-174 -172 0
-172 -176 0
-172 -178 0
-172 -180 0
-172 -182 0
-184 -172 0
-186 -172 0
-174 -176 0
-174 -178 0
-174 -180 0
-174 -182 0
-174 -184 0
-174 -186 0
-178 -176 0
-176 -180 0
-176 -182 0
-184 -176 0
-186 -176 0
-178 -180 0
-178 -182 0
-184 -178 0
-186 -178 0
-182 -180 0
-184 -180 0
-186 -180 0
-184 -182 0
-186 -182 0
-184 -186 0
-165 164 0
165 -164 0
-167 166 0
167 -166 0
-169 168 0
169 -168 0
-171 170 0
171 -170 0
-173 172 0
173 -172 0
174 -175 0
-174 175 0
-177 176 0
177 -176 0
-179 178 0
179 -178 0
-181 180 0
181 -180 0
-183 182 0
183 -182 0
-185 184 0
185 -184 0
-187 186 0
187 -186 0
-190 189 0
-195 189 0
-199 189 0
-218 189 0
-191 190 0
-192 190 0
-193 190 0
-194 190 0
195 -196 0
-197 196 0
-198 196 0
198 197 -196 0
-198 -197 0
-200 199 0
-201 199 0
-204 199 0
-212 199 0
-217 199 0
-202 201 0
-203 201 0
-205 204 0
-208 204 0
205 -204 0
205 -206 0
205 -207 0
-205 206 207 0
-206 -207 0
-209 208 0
208 -210 0
208 -211 0
209 -208 211 210 0
-213 212 0
-216 212 0
213 -212 0
213 -214 0
213 -215 0
-213 214 215 0
-214 -215 0
-219 218 0
218 -220 0
-224 218 0
-231 218 0
-221 220 0
221 -222 0
221 -223 0
-221 222 223 0
-222 -223 0
-225 224 0
224 -228 0
225 -226 0
225 -227 0
-225 226 227 0
-226 -227 0
-229 228 0
228 -230 0
229 -228 230 0
-229 -230 0
-232 231 0
231 -239 0
232 -231 0
232 -233 0
-236 232 0
-232 233 0
236 -232 0
233 -234 0
-235 233 0
235 -233 234 0
-235 -234 0
236 -237 0
236 -238 0
-236 238 237 0
-238 -237 0
-240 239 0
-241 239 0
-242 239 0
239 -243 0
-244 239 0
240 -239 0
257 -150 0
251 -223 0
251 -99 0
-255 102 94 238 0
259 -167 0
-247 77 145 0
-254 103 95 237 0
246 -139 0
-262 225 98 0
263 -23 0
257 -187 0
245 -64 0
261 -221 0
252 -226 0
259 -165 0
256 -146 0
257 -141 0
253 -101 0
257 -117 0
249 -78 0
257 -148 0
246 -73 0
262 -225 0
254 -95 0
263 -235 0
253 -93 0
251 -215 0
258 -156 0
247 -77 0
-248 76 74 0
245 -70 0
-251 215 223 227 99 207 0
252 -206 0
255 -94 0
257 -181 0
250 -89 0
261 -205 0
251 -227 0
255 -238 0
-258 156 158 0
249 -105 0
-246 73 139 0
-245 64 70 0
258 -158 0
-252 100 206 214 222 226 0
250 -199 0
252 -100 0
254 -237 0
256 -189 0
261 -213 0
251 -207 0
257 -143 0
-256 189 146 0
-249 78 105 0
-257 117 187 141 143 148 152 150 162 181 179 0
257 -179 0
-263 23 235 0
254 -103 0
248 -76 0
248 -74 0
250 -137 0
262 -98 0
-253 101 93 0
255 -102 0
-250 89 137 199 0
247 -145 0
-259 165 167 0
252 -222 0
257 -152 0
252 -214 0
257 -162 0
-261 213 221 205 0
-78 0
138 0
-139 0
