c t pmc
p cnf 117 420
c p show 1 2 3 4 5 6 7 8 9 10 11 12 13 14 15 16 17 18 19 20 21 22 23 24 25 26 27 28 29 30 31 32 33 34 35 36 37 38 39 40 41 42 43 44 45 46 47 48 49 50 51 52 53 54 55 56 57 58 59 60 61 62 63 64 65 66 67 68 69 70 71 72 73 74 75 76 77 78 79 80 81 82 83 84 85 86 87 88 89 90 91 92 93 94 95 96 97 98 99 100 101 102 103 104 105 106 107 108 109 110 111 112 113 114 115 116 117 0
1 0
-2 1 0
-16 1 0
-21 1 0
1 -43 0
-44 1 0
-51 1 0
-55 1 0
-56 1 0
16 -1 0
21 -1 0
44 -1 0
51 -1 0
56 -1 0
2 -3 0
2 -4 0
2 -5 0
2 -6 0
2 -7 0
2 -8 0
2 -9 0
2 -10 0
2 -11 0
2 -12 0
2 -13 0
2 -14 0
2 -15 0
-2 12 0
16 -17 0
16 -18 0
-19 16 0
16 -20 0
-22 21 0
-23 21 0
-32 21 0
-33 21 0
-37 21 0
-38 21 0
-39 21 0
23 -21 0
33 -21 0
39 -21 0
23 -24 0
23 -27 0
-23 27 24 0
-27 -24 0
24 -25 0
-26 24 0
26 -24 0
-28 27 0
-31 27 0
28 -27 0
-29 28 0
-30 28 0
29 30 -28 0
-29 -30 0
-34 33 0
-35 33 0
33 -36 0
-40 39 0
-41 39 0
39 -42 0
41 -39 0
44 -45 0
44 -46 0
44 -50 0
-47 46 0
-48 46 0
-49 46 0
49 -46 0
-52 51 0
51 -53 0
51 -54 0
-57 56 0
-58 56 0
-59 56 0
-60 56 0
-61 56 0
-62 56 0
-63 56 0
-64 56 0
-65 56 0
-66 56 0
-67 56 0
-68 56 0
-69 56 0
-70 56 0
-71 56 0
-72 56 0
-73 56 0
-74 56 0
-75 56 0
-76 56 0
-77 56 0
-78 56 0
-79 56 0
-80 56 0
-81 56 0
-82 56 0
-83 56 0
-84 56 0
-85 56 0
-86 56 0
-87 56 0
-88 56 0
-89 56 0
-90 56 0
-91 56 0
-92 56 0
-93 56 0
-94 56 0
-95 56 0
-96 56 0
-97 56 0
-98 56 0
-99 56 0
-100 56 0
-101 56 0
-102 56 0
-103 56 0
-104 56 0
-105 56 0
-106 56 0
-107 56 0
-108 56 0
-109 56 0
-110 56 0
-111 56 0
-112 56 0
-113 56 0
-114 56 0
-115 56 0
-116 56 0
-117 56 0
81 79 98 103 92 105 106 104 66 68 72 89 97 65 70 75 87 95 107 83 101 93 74 60 91 61 86 114 71 117 116 94 67 58 57 115 82 111 110 78 80 109 90 99 59 113 108 112 64 100 73 69 76 88 96 84 102 77 63 62 85 -56 0
-49 55 0
-48 55 0
-42 55 0
-47 45 0
-34 35 0
-52 49 0
-52 45 0
-52 55 0
49 -55 0
17 -55 0
52 -54 0
45 -50 0
-57 12 0
-57 49 0
-57 43 0
-57 6 0
57 -12 0
57 -49 0
57 -43 0
57 -6 0
-58 12 0
-58 49 0
-58 6 0
-58 55 0
58 -12 0
58 -49 0
58 -6 0
58 -55 0
-59 50 0
-59 11 0
-59 43 0
59 -50 0
59 -11 0
59 -43 0
-60 17 0
-60 50 0
-60 43 0
60 -17 0
60 -50 0
60 -43 0
-61 17 0
-61 45 0
-61 50 0
61 -17 0
61 -45 0
61 -50 0
-62 45 0
-62 50 0
-62 43 0
62 -45 0
62 -50 0
62 -43 0
-63 50 0
-63 43 0
52 -63 0
63 -50 0
63 -43 0
-52 63 0
-64 49 0
-64 42 0
47 -64 0
64 -49 0
64 -42 0
-47 64 0
-65 45 0
-65 49 0
47 -65 0
65 -45 0
65 -49 0
-47 65 0
-66 49 0
47 -66 0
-66 55 0
66 -49 0
-47 66 0
66 -55 0
-67 12 0
-67 49 0
-67 6 0
67 -12 0
67 -49 0
67 -6 0
-68 17 0
-68 20 0
68 -17 0
68 -20 0
29 -69 0
-69 30 0
-29 69 0
69 -30 0
-70 26 0
-70 25 0
70 -26 0
70 -25 0
-71 4 0
-71 43 0
71 -4 0
71 -43 0
-72 20 0
-72 43 0
72 -20 0
72 -43 0
-73 42 0
-73 43 0
73 -42 0
73 -43 0
-74 17 0
-74 43 0
74 -17 0
74 -43 0
-75 17 0
19 -75 0
75 -17 0
-19 75 0
19 -76 0
-76 43 0
-19 76 0
76 -43 0
-77 50 0
-77 43 0
77 -50 0
77 -43 0
34 -78 0
-78 15 0
-34 78 0
78 -15 0
34 -79 0
36 -79 0
-34 79 0
-36 79 0
-80 15 0
35 -80 0
80 -15 0
-35 80 0
34 -81 0
35 -81 0
-34 81 0
-35 81 0
-82 45 0
-82 14 0
82 -45 0
82 -14 0
-83 17 0
-83 45 0
83 -17 0
83 -45 0
-84 45 0
-84 43 0
84 -45 0
84 -43 0
-85 45 0
-85 50 0
85 -45 0
85 -50 0
-86 7 0
52 -86 0
86 -7 0
-52 86 0
-87 17 0
52 -87 0
87 -17 0
-52 87 0
-88 43 0
52 -88 0
88 -43 0
-52 88 0
-89 45 0
52 -89 0
89 -45 0
-52 89 0
-90 15 0
-90 54 0
90 -15 0
90 -54 0
-91 17 0
-91 54 0
91 -17 0
91 -54 0
-92 54 0
52 -92 0
92 -54 0
-52 92 0
-93 17 0
-93 53 0
93 -17 0
93 -53 0
-94 49 0
-94 6 0
94 -49 0
94 -6 0
-95 17 0
-95 49 0
95 -17 0
95 -49 0
-96 49 0
-96 43 0
96 -49 0
96 -43 0
-97 45 0
-97 49 0
97 -45 0
97 -49 0
-98 49 0
52 -98 0
98 -49 0
-52 98 0
-99 11 0
-99 55 0
99 -11 0
99 -55 0
-100 42 0
-100 55 0
100 -42 0
100 -55 0
-101 17 0
-101 55 0
101 -17 0
101 -55 0
-102 43 0
-102 55 0
102 -43 0
102 -55 0
52 -103 0
-103 55 0
-52 103 0
103 -55 0
-104 49 0
-104 55 0
104 -49 0
104 -55 0
-105 49 0
47 -105 0
105 -49 0
-47 105 0
-106 49 0
-106 48 0
106 -49 0
106 -48 0
-107 17 0
-107 38 0
107 -17 0
107 -38 0
-108 5 0
-108 32 0
108 -5 0
108 -32 0
-109 12 0
-109 15 0
109 -12 0
109 -15 0
-110 12 0
-110 3 0
110 -12 0
110 -3 0
-111 12 0
-111 14 0
111 -12 0
111 -14 0
-112 12 0
-112 5 0
112 -12 0
112 -5 0
-113 12 0
-113 8 0
113 -12 0
113 -8 0
-114 7 0
-114 12 0
114 -7 0
114 -12 0
-115 12 0
-115 13 0
115 -12 0
115 -13 0
-116 12 0
-116 9 0
116 -12 0
116 -9 0
-117 12 0
-117 10 0
117 -12 0
117 -10 0
13 0
-100 0
-61 0
