c t pmc
p cnf 377 1359
c p show 2 3 4 5 6 7 8 9 10 11 12 13 14 15 16 17 18 19 20 21 22 23 24 25 26 27 28 29 30 31 32 33 34 35 36 37 38 39 40 41 42 43 44 45 46 47 48 49 50 51 52 53 54 55 56 57 58 59 60 61 62 63 64 65 66 67 68 69 70 71 72 73 74 75 76 77 78 79 80 81 82 83 84 85 86 87 88 89 90 91 92 93 94 95 96 97 98 99 100 101 102 103 104 105 106 107 108 109 110 111 112 113 114 115 116 117 118 119 120 121 122 123 124 125 126 127 128 129 130 131 132 133 134 135 136 137 138 139 140 141 142 143 144 145 146 147 148 149 150 151 152 153 154 155 156 157 158 159 160 161 162 163 164 165 166 167 168 169 170 171 172 173 174 175 176 177 178 179 180 181 182 183 184 185 186 187 188 189 190 191 192 193 194 195 196 197 198 199 200 201 202 203 204 205 206 207 208 209 210 211 212 213 214 215 216 217 218 219 220 221 222 223 224 225 226 227 228 229 230 231 232 233 234 235 236 237 238 239 240 241 242 243 244 245 246 247 248 249 250 251 252 253 254 255 256 257 258 259 260 261 262 263 264 265 266 267 268 269 270 271 272 273 274 275 276 277 278 279 280 281 282 283 284 285 286 287 288 289 290 291 292 293 294 295 296 297 298 299 300 301 302 303 304 305 306 307 308 309 310 311 312 313 314 315 316 317 318 319 320 321 322 323 324 325 326 327 328 329 330 331 332 333 334 335 336 337 338 339 340 341 342 343 344 345 346 347 348 349 350 351 352 353 354 355 356 357 358 359 360 361 362 363 364 365 366 367 368 369 370 371 372 373 374 375 376 377 0
1 0
1 -2 0
-23 1 0
1 -69 0
-87 1 0
-101 1 0
1 -160 0
-193 1 0
-222 1 0
-236 1 0
-250 1 0
-270 1 0
-282 1 0
-283 1 0
1 -293 0
-299 1 0
-303 1 0
1 -308 0
-310 1 0
-313 1 0
-325 1 0
-339 1 0
-356 1 0
-369 1 0
-1 2 0
23 -1 0
-1 69 0
87 -1 0
101 -1 0
-1 160 0
193 -1 0
-1 293 0
-3 2 0
-6 2 0
-11 2 0
-16 2 0
2 -19 0
6 11 16 3 -2 19 0
-6 -3 0
-11 -3 0
-16 -3 0
-3 -19 0
-6 -11 0
-6 -16 0
-6 -19 0
-11 -16 0
-11 -19 0
-16 -19 0
-4 3 0
-5 3 0
4 5 -3 0
-4 -5 0
6 -7 0
6 -8 0
6 -9 0
6 -10 0
-6 7 8 9 10 0
-7 -8 0
-7 -9 0
-7 -10 0
-8 -9 0
-8 -10 0
-9 -10 0
11 -12 0
11 -13 0
11 -14 0
11 -15 0
-11 12 13 14 15 0
-12 -13 0
-12 -14 0
-12 -15 0
-13 -14 0
-13 -15 0
-14 -15 0
16 -17 0
16 -18 0
-16 17 18 0
-17 -18 0
-20 19 0
-21 19 0
-22 19 0
20 21 22 -19 0
-20 -21 0
-20 -22 0
-21 -22 0
-24 23 0
23 -55 0
-62 23 0
23 -65 0
62 24 -23 65 55 0
-24 -55 0
-62 -24 0
-24 -65 0
-62 -55 0
-65 -55 0
-62 -65 0
-25 24 0
-28 24 0
-34 24 0
-39 24 0
-43 24 0
-45 24 0
-51 24 0
25 28 34 39 43 45 51 -24 0
-25 -28 0
-25 -34 0
-25 -39 0
-25 -43 0
-25 -45 0
-25 -51 0
-28 -34 0
-28 -39 0
-28 -43 0
-28 -45 0
-28 -51 0
-34 -39 0
-34 -43 0
-34 -45 0
-34 -51 0
-39 -43 0
-39 -45 0
-39 -51 0
-43 -45 0
-43 -51 0
-45 -51 0
25 -26 0
25 -27 0
-25 26 27 0
-26 -27 0
28 -29 0
28 -30 0
28 -31 0
28 -32 0
28 -33 0
-28 30 29 32 33 31 0
-30 -29 0
-29 -31 0
-29 -32 0
-29 -33 0
-30 -31 0
-30 -32 0
-30 -33 0
-32 -31 0
-33 -31 0
-32 -33 0
34 -35 0
34 -36 0
34 -37 0
34 -38 0
-34 37 38 35 36 0
-35 -36 0
-37 -35 0
-38 -35 0
-37 -36 0
-38 -36 0
-37 -38 0
39 -40 0
39 -41 0
39 -42 0
-39 42 40 41 0
-40 -41 0
-42 -40 0
-42 -41 0
43 -44 0
-43 44 0
45 -46 0
45 -47 0
45 -48 0
45 -49 0
45 -50 0
-45 48 50 46 49 47 0
-46 -47 0
-48 -46 0
-46 -49 0
-50 -46 0
-48 -47 0
-49 -47 0
-50 -47 0
-48 -49 0
-48 -50 0
-50 -49 0
51 -52 0
51 -53 0
51 -54 0
-51 53 52 54 0
-53 -52 0
-52 -54 0
-53 -54 0
-56 55 0
-57 55 0
-58 55 0
-59 55 0
-60 55 0
-61 55 0
56 57 58 59 60 61 -55 0
-56 -57 0
-56 -58 0
-56 -59 0
-56 -60 0
-56 -61 0
-57 -58 0
-57 -59 0
-57 -60 0
-57 -61 0
-58 -59 0
-58 -60 0
-58 -61 0
-59 -60 0
-59 -61 0
-60 -61 0
62 -63 0
62 -64 0
-62 63 64 0
-63 -64 0
-66 65 0
-67 65 0
-68 65 0
66 67 68 -65 0
-66 -67 0
-66 -68 0
-67 -68 0
-70 69 0
-77 69 0
-84 69 0
70 77 84 -69 0
-70 -77 0
-70 -84 0
-77 -84 0
-71 70 0
70 -72 0
-73 70 0
70 -74 0
70 -75 0
70 -76 0
73 71 -70 75 72 76 74 0
-71 -72 0
-73 -71 0
-71 -74 0
-71 -75 0
-71 -76 0
-73 -72 0
-72 -74 0
-75 -72 0
-72 -76 0
-73 -74 0
-73 -75 0
-73 -76 0
-75 -74 0
-76 -74 0
-75 -76 0
-78 77 0
77 -79 0
-80 77 0
77 -81 0
77 -82 0
77 -83 0
80 78 -77 82 79 83 81 0
-78 -79 0
-80 -78 0
-78 -81 0
-78 -82 0
-78 -83 0
-80 -79 0
-79 -81 0
-82 -79 0
-79 -83 0
-80 -81 0
-80 -82 0
-80 -83 0
-82 -81 0
-83 -81 0
-82 -83 0
-85 84 0
-86 84 0
85 86 -84 0
-85 -86 0
-88 87 0
-93 87 0
93 88 -87 0
-93 -88 0
88 -89 0
88 -90 0
88 -91 0
88 -92 0
-88 90 89 92 91 0
-90 -89 0
-89 -91 0
-89 -92 0
-90 -91 0
-90 -92 0
-92 -91 0
93 -94 0
93 -95 0
93 -96 0
93 -97 0
93 -98 0
93 -99 0
93 -100 0
-93 94 95 96 100 97 99 98 0
-94 -95 0
-94 -96 0
-94 -97 0
-94 -98 0
-94 -99 0
-94 -100 0
-95 -96 0
-95 -97 0
-95 -98 0
-95 -99 0
-95 -100 0
-96 -97 0
-96 -98 0
-96 -99 0
-96 -100 0
-97 -98 0
-97 -99 0
-100 -97 0
-99 -98 0
-100 -98 0
-100 -99 0
101 -102 0
101 -109 0
101 -114 0
101 -126 0
101 -146 0
-150 101 0
101 -158 0
150 -101 158 114 109 102 146 126 0
-109 -102 0
-114 -102 0
-102 -126 0
-102 -146 0
-150 -102 0
-158 -102 0
-114 -109 0
-109 -126 0
-109 -146 0
-150 -109 0
-158 -109 0
-114 -126 0
-114 -146 0
-150 -114 0
-158 -114 0
-146 -126 0
-150 -126 0
-158 -126 0
-150 -146 0
-158 -146 0
-150 -158 0
-103 102 0
-104 102 0
102 -105 0
102 -106 0
-107 102 0
-108 102 0
107 108 104 103 -102 105 106 0
-104 -103 0
-103 -105 0
-103 -106 0
-107 -103 0
-108 -103 0
-104 -105 0
-104 -106 0
-107 -104 0
-108 -104 0
-105 -106 0
-107 -105 0
-108 -105 0
-107 -106 0
-108 -106 0
-107 -108 0
-110 109 0
109 -111 0
-112 109 0
109 -113 0
110 112 -109 111 113 0
-110 -111 0
-110 -112 0
-110 -113 0
-112 -111 0
-111 -113 0
-112 -113 0
114 -115 0
114 -116 0
114 -117 0
-118 114 0
-119 114 0
-120 114 0
-121 114 0
-122 114 0
114 -123 0
114 -124 0
114 -125 0
121 122 120 119 118 -114 115 123 124 125 116 117 0
-115 -116 0
-115 -117 0
-118 -115 0
-119 -115 0
-120 -115 0
-121 -115 0
-122 -115 0
-115 -123 0
-115 -124 0
-115 -125 0
-116 -117 0
-118 -116 0
-119 -116 0
-120 -116 0
-121 -116 0
-122 -116 0
-123 -116 0
-124 -116 0
-125 -116 0
-118 -117 0
-119 -117 0
-120 -117 0
-121 -117 0
-122 -117 0
-123 -117 0
-124 -117 0
-125 -117 0
-119 -118 0
-120 -118 0
-121 -118 0
-122 -118 0
-118 -123 0
-118 -124 0
-118 -125 0
-120 -119 0
-121 -119 0
-122 -119 0
-119 -123 0
-119 -124 0
-119 -125 0
-121 -120 0
-122 -120 0
-120 -123 0
-120 -124 0
-120 -125 0
-121 -122 0
-121 -123 0
-121 -124 0
-121 -125 0
-122 -123 0
-122 -124 0
-122 -125 0
-123 -124 0
-123 -125 0
-124 -125 0
-127 126 0
-128 126 0
-129 126 0
-130 126 0
-131 126 0
126 -132 0
-133 126 0
126 -134 0
-135 126 0
-136 126 0
-137 126 0
-138 126 0
-139 126 0
126 -140 0
126 -141 0
126 -142 0
126 -143 0
126 -144 0
126 -145 0
127 128 129 130 131 133 139 138 135 137 136 -126 132 134 141 144 142 140 143 145 0
-127 -128 0
-127 -129 0
-127 -130 0
-127 -131 0
-127 -132 0
-127 -133 0
-127 -134 0
-127 -135 0
-127 -136 0
-127 -137 0
-127 -138 0
-127 -139 0
-127 -140 0
-127 -141 0
-127 -142 0
-127 -143 0
-127 -144 0
-127 -145 0
-128 -129 0
-128 -130 0
-128 -131 0
-128 -132 0
-128 -133 0
-128 -134 0
-128 -135 0
-128 -136 0
-128 -137 0
-128 -138 0
-128 -139 0
-128 -140 0
-128 -141 0
-128 -142 0
-128 -143 0
-128 -144 0
-128 -145 0
-129 -130 0
-129 -131 0
-129 -132 0
-129 -133 0
-129 -134 0
-129 -135 0
-129 -136 0
-129 -137 0
-129 -138 0
-129 -139 0
-129 -140 0
-129 -141 0
-129 -142 0
-129 -143 0
-129 -144 0
-129 -145 0
-130 -131 0
-130 -132 0
-130 -133 0
-130 -134 0
-130 -135 0
-130 -136 0
-130 -137 0
-130 -138 0
-130 -139 0
-130 -140 0
-130 -141 0
-130 -142 0
-130 -143 0
-130 -144 0
-130 -145 0
-131 -132 0
-131 -133 0
-131 -134 0
-131 -135 0
-131 -136 0
-131 -137 0
-131 -138 0
-131 -139 0
-131 -140 0
-131 -141 0
-131 -142 0
-131 -143 0
-131 -144 0
-131 -145 0
-133 -132 0
-132 -134 0
-135 -132 0
-136 -132 0
-137 -132 0
-138 -132 0
-139 -132 0
-132 -140 0
-132 -141 0
-132 -142 0
-132 -143 0
-132 -144 0
-132 -145 0
-133 -134 0
-133 -135 0
-133 -136 0
-133 -137 0
-133 -138 0
-133 -139 0
-133 -140 0
-133 -141 0
-133 -142 0
-133 -143 0
-133 -144 0
-133 -145 0
-135 -134 0
-136 -134 0
-137 -134 0
-138 -134 0
-139 -134 0
-134 -140 0
-134 -141 0
-134 -142 0
-134 -143 0
-134 -144 0
-134 -145 0
-135 -136 0
-135 -137 0
-138 -135 0
-139 -135 0
-135 -140 0
-135 -141 0
-135 -142 0
-135 -143 0
-135 -144 0
-135 -145 0
-137 -136 0
-138 -136 0
-139 -136 0
-136 -140 0
-136 -141 0
-136 -142 0
-136 -143 0
-136 -144 0
-136 -145 0
-138 -137 0
-139 -137 0
-137 -140 0
-137 -141 0
-137 -142 0
-137 -143 0
-137 -144 0
-137 -145 0
-139 -138 0
-138 -140 0
-138 -141 0
-138 -142 0
-138 -143 0
-138 -144 0
-138 -145 0
-139 -140 0
-139 -141 0
-139 -142 0
-139 -143 0
-139 -144 0
-139 -145 0
-141 -140 0
-142 -140 0
-140 -143 0
-144 -140 0
-140 -145 0
-141 -142 0
-141 -143 0
-141 -144 0
-141 -145 0
-142 -143 0
-144 -142 0
-142 -145 0
-144 -143 0
-143 -145 0
-144 -145 0
146 -147 0
146 -148 0
-149 146 0
149 -146 148 147 0
-148 -147 0
-149 -147 0
-149 -148 0
150 -151 0
150 -152 0
150 -153 0
150 -154 0
150 -155 0
150 -156 0
150 -157 0
-150 157 152 156 151 155 154 153 0
-152 -151 0
-151 -153 0
-151 -154 0
-151 -155 0
-156 -151 0
-157 -151 0
-152 -153 0
-152 -154 0
-152 -155 0
-152 -156 0
-157 -152 0
-154 -153 0
-155 -153 0
-156 -153 0
-157 -153 0
-155 -154 0
-156 -154 0
-157 -154 0
-156 -155 0
-157 -155 0
-157 -156 0
-159 158 0
159 -158 0
-161 160 0
-165 160 0
-170 160 0
-175 160 0
-185 160 0
-189 160 0
189 185 175 170 165 161 -160 0
-165 -161 0
-170 -161 0
-175 -161 0
-185 -161 0
-189 -161 0
-170 -165 0
-175 -165 0
-185 -165 0
-189 -165 0
-175 -170 0
-185 -170 0
-189 -170 0
-185 -175 0
-189 -175 0
-189 -185 0
161 -162 0
161 -163 0
161 -164 0
-161 162 163 164 0
-162 -163 0
-162 -164 0
-163 -164 0
165 -166 0
165 -167 0
165 -168 0
165 -169 0
-165 166 167 168 169 0
-166 -167 0
-166 -168 0
-166 -169 0
-167 -168 0
-167 -169 0
-168 -169 0
170 -171 0
170 -172 0
170 -173 0
170 -174 0
-170 173 174 171 172 0
-171 -172 0
-173 -171 0
-174 -171 0
-173 -172 0
-174 -172 0
-173 -174 0
-176 175 0
-177 175 0
-178 175 0
-179 175 0
-180 175 0
-181 175 0
-182 175 0
-183 175 0
-184 175 0
176 177 178 179 180 181 182 183 184 -175 0
-176 -177 0
-176 -178 0
-176 -179 0
-176 -180 0
-176 -181 0
-176 -182 0
-176 -183 0
-176 -184 0
-177 -178 0
-177 -179 0
-177 -180 0
-177 -181 0
-177 -182 0
-177 -183 0
-177 -184 0
-178 -179 0
-178 -180 0
-178 -181 0
-178 -182 0
-178 -183 0
-178 -184 0
-179 -180 0
-179 -181 0
-179 -182 0
-179 -183 0
-179 -184 0
-180 -181 0
-180 -182 0
-180 -183 0
-180 -184 0
-181 -182 0
-181 -183 0
-181 -184 0
-182 -183 0
-182 -184 0
-183 -184 0
-186 185 0
-187 185 0
-188 185 0
186 187 188 -185 0
-186 -187 0
-186 -188 0
-187 -188 0
-190 189 0
-191 189 0
-192 189 0
191 190 192 -189 0
-191 -190 0
-190 -192 0
-191 -192 0
193 -194 0
193 -197 0
-200 193 0
-206 193 0
193 -209 0
-214 193 0
193 -219 0
206 214 200 -193 209 219 197 194 0
-197 -194 0
-200 -194 0
-206 -194 0
-209 -194 0
-214 -194 0
-219 -194 0
-200 -197 0
-206 -197 0
-209 -197 0
-214 -197 0
-219 -197 0
-206 -200 0
-200 -209 0
-214 -200 0
-200 -219 0
-206 -209 0
-206 -214 0
-206 -219 0
-214 -209 0
-209 -219 0
-214 -219 0
-195 194 0
-196 194 0
196 195 -194 0
-196 -195 0
-198 197 0
-199 197 0
199 198 -197 0
-199 -198 0
-201 200 0
-202 200 0
200 -203 0
200 -204 0
200 -205 0
202 201 -200 204 203 205 0
-202 -201 0
-201 -203 0
-201 -204 0
-201 -205 0
-202 -203 0
-202 -204 0
-202 -205 0
-204 -203 0
-203 -205 0
-204 -205 0
-207 206 0
-208 206 0
207 208 -206 0
-207 -208 0
-210 209 0
-211 209 0
-212 209 0
-213 209 0
212 213 210 211 -209 0
-210 -211 0
-212 -210 0
-213 -210 0
-212 -211 0
-213 -211 0
-212 -213 0
214 -215 0
214 -216 0
214 -217 0
214 -218 0
-214 215 216 217 218 0
-215 -216 0
-215 -217 0
-215 -218 0
-216 -217 0
-216 -218 0
-217 -218 0
-220 219 0
-221 219 0
220 221 -219 0
-220 -221 0
222 -223 0
222 -229 0
-222 223 229 0
-223 -229 0
-224 223 0
-225 223 0
-226 223 0
-227 223 0
-228 223 0
228 224 225 226 227 -223 0
-224 -225 0
-224 -226 0
-224 -227 0
-228 -224 0
-225 -226 0
-225 -227 0
-228 -225 0
-226 -227 0
-228 -226 0
-228 -227 0
-230 229 0
-231 229 0
-232 229 0
-233 229 0
-234 229 0
-235 229 0
231 234 235 232 230 233 -229 0
-231 -230 0
-232 -230 0
-230 -233 0
-234 -230 0
-235 -230 0
-231 -232 0
-231 -233 0
-231 -234 0
-231 -235 0
-232 -233 0
-234 -232 0
-235 -232 0
-234 -233 0
-235 -233 0
-234 -235 0
236 -237 0
236 -243 0
236 -248 0
-236 248 243 237 0
-243 -237 0
-248 -237 0
-248 -243 0
-238 237 0
-239 237 0
-240 237 0
-241 237 0
-242 237 0
240 241 238 242 239 -237 0
-238 -239 0
-240 -238 0
-241 -238 0
-238 -242 0
-240 -239 0
-241 -239 0
-242 -239 0
-240 -241 0
-240 -242 0
-241 -242 0
-244 243 0
-245 243 0
-246 243 0
-247 243 0
244 245 246 247 -243 0
-244 -245 0
-244 -246 0
-244 -247 0
-245 -246 0
-245 -247 0
-246 -247 0
-249 248 0
249 -248 0
250 -251 0
250 -258 0
250 -267 0
-250 267 258 251 0
-258 -251 0
-267 -251 0
-267 -258 0
-252 251 0
-253 251 0
-254 251 0
-255 251 0
-256 251 0
-257 251 0
252 253 254 255 256 257 -251 0
-252 -253 0
-252 -254 0
-252 -255 0
-252 -256 0
-252 -257 0
-253 -254 0
-253 -255 0
-253 -256 0
-253 -257 0
-254 -255 0
-254 -256 0
-254 -257 0
-255 -256 0
-255 -257 0
-256 -257 0
-259 258 0
-260 258 0
-261 258 0
-262 258 0
-263 258 0
-264 258 0
-265 258 0
-266 258 0
259 265 266 260 261 262 263 264 -258 0
-259 -260 0
-259 -261 0
-259 -262 0
-259 -263 0
-259 -264 0
-259 -265 0
-259 -266 0
-260 -261 0
-260 -262 0
-260 -263 0
-260 -264 0
-265 -260 0
-266 -260 0
-261 -262 0
-261 -263 0
-261 -264 0
-265 -261 0
-266 -261 0
-262 -263 0
-262 -264 0
-265 -262 0
-266 -262 0
-263 -264 0
-265 -263 0
-266 -263 0
-265 -264 0
-266 -264 0
-265 -266 0
-268 267 0
-269 267 0
268 269 -267 0
-268 -269 0
-271 270 0
-274 270 0
270 -276 0
270 -278 0
274 271 -270 276 278 0
-274 -271 0
-271 -276 0
-271 -278 0
-274 -276 0
-274 -278 0
-276 -278 0
271 -272 0
-273 271 0
273 -271 272 0
-273 -272 0
274 -275 0
-274 275 0
276 -277 0
-276 277 0
-279 278 0
-280 278 0
-281 278 0
279 281 280 -278 0
-279 -280 0
-279 -281 0
-281 -280 0
-284 283 0
-289 283 0
-290 283 0
284 290 289 -283 0
-284 -289 0
-284 -290 0
-290 -289 0
284 -285 0
284 -286 0
284 -287 0
284 -288 0
-284 286 287 285 288 0
-286 -285 0
-287 -285 0
-285 -288 0
-286 -287 0
-286 -288 0
-287 -288 0
-291 290 0
-292 290 0
291 292 -290 0
-291 -292 0
293 -294 0
-295 293 0
295 -293 294 0
-295 -294 0
295 -296 0
295 -297 0
295 -298 0
-295 298 297 296 0
-297 -296 0
-298 -296 0
-298 -297 0
-300 299 0
-301 299 0
299 -302 0
301 300 -299 302 0
-301 -300 0
-300 -302 0
-301 -302 0
303 -304 0
303 -307 0
-303 307 304 0
-307 -304 0
-305 304 0
-306 304 0
305 306 -304 0
-305 -306 0
-309 308 0
309 -308 0
-311 310 0
-312 310 0
312 311 -310 0
-312 -311 0
-314 313 0
-317 313 0
-324 313 0
317 324 314 -313 0
-317 -314 0
-324 -314 0
-317 -324 0
314 -315 0
314 -316 0
-314 316 315 0
-316 -315 0
317 -318 0
317 -319 0
317 -320 0
317 -321 0
317 -322 0
317 -323 0
-317 322 323 320 318 319 321 0
-318 -319 0
-320 -318 0
-318 -321 0
-322 -318 0
-323 -318 0
-320 -319 0
-319 -321 0
-322 -319 0
-323 -319 0
-320 -321 0
-322 -320 0
-323 -320 0
-322 -321 0
-323 -321 0
-322 -323 0
325 -326 0
-330 325 0
325 -335 0
330 -325 326 335 0
-330 -326 0
-326 -335 0
-330 -335 0
-327 326 0
-328 326 0
326 -329 0
327 328 -326 329 0
-327 -328 0
-327 -329 0
-328 -329 0
330 -331 0
330 -332 0
330 -333 0
330 -334 0
-330 331 334 333 332 0
-331 -332 0
-331 -333 0
-331 -334 0
-333 -332 0
-334 -332 0
-334 -333 0
335 -336 0
-337 335 0
-338 335 0
337 338 -335 336 0
-337 -336 0
-338 -336 0
-337 -338 0
339 -340 0
-345 339 0
339 -346 0
339 -349 0
345 -339 340 349 346 0
-345 -340 0
-340 -346 0
-340 -349 0
-345 -346 0
-345 -349 0
-349 -346 0
-341 340 0
340 -342 0
340 -343 0
340 -344 0
341 -340 344 342 343 0
-341 -342 0
-341 -343 0
-341 -344 0
-342 -343 0
-344 -342 0
-344 -343 0
-347 346 0
-348 346 0
348 347 -346 0
-348 -347 0
-350 349 0
-351 349 0
-352 349 0
-353 349 0
-354 349 0
-355 349 0
352 351 353 350 354 355 -349 0
-351 -350 0
-352 -350 0
-353 -350 0
-350 -354 0
-350 -355 0
-352 -351 0
-351 -353 0
-351 -354 0
-351 -355 0
-352 -353 0
-352 -354 0
-352 -355 0
-353 -354 0
-353 -355 0
-354 -355 0
-357 356 0
-363 356 0
-368 356 0
363 368 357 -356 0
-363 -357 0
-368 -357 0
-363 -368 0
-358 357 0
-359 357 0
-360 357 0
-361 357 0
-362 357 0
359 361 362 360 358 -357 0
-359 -358 0
-360 -358 0
-361 -358 0
-362 -358 0
-359 -360 0
-359 -361 0
-359 -362 0
-361 -360 0
-362 -360 0
-361 -362 0
363 -364 0
363 -365 0
363 -366 0
363 -367 0
-363 364 366 367 365 0
-364 -365 0
-364 -366 0
-364 -367 0
-366 -365 0
-367 -365 0
-366 -367 0
-370 369 0
-374 369 0
374 370 -369 0
-374 -370 0
-371 370 0
370 -372 0
370 -373 0
371 -370 373 372 0
-371 -372 0
-371 -373 0
-373 -372 0
374 -375 0
374 -376 0
374 -377 0
-374 375 377 376 0
-375 -376 0
-375 -377 0
-377 -376 0
-39 179 180 181 182 183 184 189 185 170 165 163 164 0
-43 179 180 181 182 183 184 189 185 170 165 163 164 0
-45 179 180 181 182 183 184 189 185 170 165 163 164 0
-51 179 180 181 182 183 184 189 185 170 165 163 164 0
179 180 181 182 183 184 189 185 170 165 -60 163 164 0
179 180 181 182 183 184 189 185 170 165 -61 163 164 0
179 180 181 182 183 184 189 185 170 165 -64 163 164 0
208 202 214 212 213 204 219 203 -20 0
208 202 214 212 213 204 219 203 -21 0
208 202 214 212 213 204 219 203 -22 0
-84 100 92 91 99 0
-74 100 92 91 99 0
-76 100 92 91 99 0
-81 100 92 91 99 0
-83 100 92 91 99 0
157 149 -213 131 152 156 151 155 132 134 144 142 0
157 149 131 152 156 151 155 132 134 -217 144 142 0
157 149 131 152 156 151 155 132 134 -218 144 142 0
127 128 157 149 131 152 156 151 -91 155 132 134 141 144 142 0
127 128 157 149 131 152 156 151 -92 155 132 134 141 144 142 0
127 128 157 149 131 152 156 151 -96 155 132 134 141 144 142 0
127 128 157 149 131 152 156 151 155 132 134 141 144 142 -97 0
127 128 157 149 131 152 156 151 155 132 134 141 144 142 -99 0
127 128 157 149 131 152 156 151 -100 155 132 134 141 144 142 0
127 128 157 149 131 152 156 151 -196 155 132 134 141 144 142 0
127 128 -200 157 149 131 152 156 151 155 132 134 141 144 142 0
127 128 -206 157 149 131 152 156 151 155 132 134 141 144 142 0
127 128 157 149 131 152 -209 156 151 155 132 134 141 144 142 0
127 128 -214 157 149 131 152 156 151 155 132 134 141 144 142 0
127 128 157 149 131 152 156 151 155 -219 132 134 141 144 142 0
-89 -288 0
-290 -89 0
-295 -89 0
-301 -89 0
-90 -288 0
-290 -90 0
-295 -90 0
-301 -90 0
-94 -288 0
-94 -290 0
-295 -94 0
-301 -94 0
94 95 96 100 90 89 -19 0
-120 -271 0
-121 -271 0
-271 -124 0
-271 -125 0
-130 -271 0
-271 -138 0
-271 -139 0
-271 -140 0
-271 -143 0
-271 -145 0
-271 -148 0
-271 -158 0
-274 -120 0
-121 -274 0
-274 -124 0
-274 -125 0
-274 -130 0
-274 -138 0
-274 -139 0
-274 -140 0
-274 -143 0
-274 -145 0
-274 -148 0
-274 -158 0
-120 -278 0
-121 -278 0
-278 -124 0
-278 -125 0
-130 -278 0
-278 -138 0
-278 -139 0
-278 -140 0
-278 -143 0
-278 -145 0
-278 -148 0
-158 -278 0
-300 -94 0
-300 -289 0
-301 -94 0
-301 -90 0
-301 -89 0
-301 -290 0
-203 -21 0
-215 -21 0
-219 -21 0
-203 -22 0
-215 -22 0
-219 -22 0
-308 0
-125 0
-334 0
