c t pmc
p cnf 179 400
c p show 1 2 3 4 5 6 7 8 9 10 11 12 13 14 15 16 17 18 19 20 21 22 23 24 25 26 27 28 29 30 31 32 33 34 35 36 37 38 39 40 41 42 43 44 45 46 47 48 49 50 51 52 53 54 55 56 57 58 59 60 61 62 63 64 65 66 67 68 69 70 71 72 73 74 75 76 77 78 79 80 81 82 83 84 85 86 87 88 89 90 91 92 93 94 95 96 97 98 99 100 101 102 103 104 105 106 107 108 109 110 111 112 113 114 115 116 117 118 119 120 121 122 123 124 125 126 127 128 129 130 131 132 133 134 135 136 137 138 139 140 141 142 143 144 145 146 147 148 149 150 151 152 153 154 155 156 157 158 159 160 161 162 163 164 165 166 167 168 169 170 171 172 173 174 175 176 177 178 179 0
1 0
-2 1 0
-71 1 0
-141 1 0
-171 1 0
-172 1 0
-173 1 0
1 -174 0
-175 1 0
-176 1 0
1 -177 0
-178 1 0
-179 1 0
2 -1 0
71 -1 0
141 -1 0
2 -3 0
2 -4 0
2 -64 0
-2 4 0
-2 64 0
-5 4 0
-6 4 0
-7 4 0
-23 4 0
-24 4 0
-25 4 0
-26 4 0
-27 4 0
-28 4 0
4 -29 0
4 -59 0
-63 4 0
7 -4 0
-4 29 0
-4 59 0
7 -8 0
-9 7 0
7 -10 0
-7 10 0
10 -11 0
10 -12 0
10 -13 0
10 -14 0
10 -15 0
10 -16 0
10 -17 0
10 -18 0
10 -19 0
10 -20 0
10 -21 0
10 -22 0
-10 20 19 12 15 16 21 13 11 22 14 17 18 0
-30 29 0
-47 29 0
-31 30 0
30 -32 0
31 -30 0
-33 32 0
-41 32 0
-46 32 0
33 -32 0
41 -32 0
46 -32 0
-34 33 0
-35 33 0
-36 33 0
-37 33 0
33 -38 0
-39 33 0
33 -40 0
39 35 34 36 37 -33 40 38 0
-35 -34 0
-34 -36 0
-34 -37 0
-34 -38 0
-39 -34 0
-34 -40 0
-35 -36 0
-35 -37 0
-35 -38 0
-39 -35 0
-35 -40 0
-36 -37 0
-36 -38 0
-39 -36 0
-36 -40 0
-37 -38 0
-39 -37 0
-37 -40 0
-39 -38 0
-40 -38 0
-39 -40 0
-42 41 0
41 -43 0
-44 41 0
-45 41 0
47 -48 0
47 -57 0
-58 47 0
-47 48 0
-47 57 0
58 -47 0
48 -49 0
-50 48 0
48 -51 0
-52 48 0
-53 48 0
-54 48 0
-55 48 0
-56 48 0
53 56 52 54 55 50 -48 49 51 0
-50 -49 0
-49 -51 0
-52 -49 0
-53 -49 0
-54 -49 0
-55 -49 0
-56 -49 0
-50 -51 0
-52 -50 0
-53 -50 0
-54 -50 0
-55 -50 0
-56 -50 0
-52 -51 0
-53 -51 0
-54 -51 0
-55 -51 0
-56 -51 0
-53 -52 0
-52 -54 0
-52 -55 0
-56 -52 0
-53 -54 0
-53 -55 0
-53 -56 0
-54 -55 0
-56 -54 0
-56 -55 0
-60 59 0
-61 59 0
-62 59 0
60 61 62 -59 0
-60 -61 0
-60 -62 0
-61 -62 0
-65 64 0
-67 64 0
67 -64 0
65 -66 0
-65 66 0
67 -68 0
67 -69 0
67 -70 0
-67 69 70 68 0
-69 -68 0
-70 -68 0
-69 -70 0
-72 71 0
71 -73 0
71 -75 0
-76 71 0
71 -131 0
71 -136 0
72 -71 0
-71 75 0
76 -71 0
-71 131 0
-71 136 0
-74 73 0
74 -73 0
-77 76 0
-78 76 0
-120 76 0
77 -76 0
78 -76 0
120 -76 0
78 -79 0
78 -85 0
78 -92 0
78 -101 0
-119 78 0
-78 79 0
-78 85 0
-78 92 0
-78 101 0
119 -78 0
-80 79 0
-81 79 0
-82 79 0
-83 79 0
79 -84 0
83 82 80 81 -79 84 0
-80 -81 0
-82 -80 0
-83 -80 0
-80 -84 0
-82 -81 0
-83 -81 0
-81 -84 0
-83 -82 0
-82 -84 0
-83 -84 0
-86 85 0
-87 85 0
85 -88 0
85 -89 0
-90 85 0
85 -91 0
92 -93 0
92 -98 0
-92 93 0
-92 98 0
-94 93 0
-95 93 0
-96 93 0
-97 93 0
97 96 95 94 -93 0
-95 -94 0
-96 -94 0
-97 -94 0
-96 -95 0
-97 -95 0
-97 -96 0
98 -99 0
98 -100 0
-98 100 99 0
-100 -99 0
-102 101 0
-103 101 0
-104 101 0
-105 101 0
-114 101 0
-115 101 0
-116 101 0
-117 101 0
-118 101 0
102 -101 0
103 -101 0
114 -101 0
105 -106 0
105 -109 0
105 -113 0
-105 106 0
-105 109 0
-105 113 0
106 -107 0
-108 106 0
108 -106 107 0
-108 -107 0
109 -110 0
109 -111 0
109 -112 0
-109 110 112 111 0
-110 -111 0
-110 -112 0
-112 -111 0
120 -121 0
120 -122 0
120 -123 0
120 -126 0
-129 120 0
-130 120 0
-120 121 0
-120 122 0
-120 123 0
-120 126 0
-124 123 0
-125 123 0
124 125 -123 0
-124 -125 0
-127 126 0
-128 126 0
128 127 -126 0
-128 -127 0
131 -132 0
131 -135 0
-131 132 0
-131 135 0
-133 132 0
-134 132 0
136 -137 0
-136 137 0
137 -138 0
137 -139 0
137 -140 0
-137 138 139 140 0
-138 -139 0
-138 -140 0
-139 -140 0
141 -142 0
-143 141 0
141 -147 0
141 -158 0
141 -165 0
141 -170 0
143 -141 0
-141 147 0
-141 158 0
-141 165 0
143 -144 0
143 -145 0
143 -146 0
-143 144 146 145 0
-144 -145 0
-144 -146 0
-146 -145 0
147 -148 0
-149 147 0
-150 147 0
-157 147 0
157 150 149 -147 148 0
-149 -148 0
-150 -148 0
-157 -148 0
-150 -149 0
-157 -149 0
-157 -150 0
-151 150 0
150 -152 0
150 -153 0
-154 150 0
-155 150 0
150 -156 0
155 154 151 -150 156 152 153 0
-151 -152 0
-151 -153 0
-154 -151 0
-155 -151 0
-151 -156 0
-152 -153 0
-154 -152 0
-155 -152 0
-156 -152 0
-154 -153 0
-155 -153 0
-156 -153 0
-155 -154 0
-154 -156 0
-155 -156 0
158 -159 0
158 -160 0
158 -161 0
158 -162 0
158 -163 0
158 -164 0
-158 159 164 161 162 163 160 0
-159 -160 0
-159 -161 0
-159 -162 0
-159 -163 0
-159 -164 0
-161 -160 0
-162 -160 0
-163 -160 0
-164 -160 0
-161 -162 0
-161 -163 0
-164 -161 0
-162 -163 0
-164 -162 0
-164 -163 0
165 -166 0
165 -167 0
165 -168 0
165 -169 0
-165 168 167 169 166 0
-167 -166 0
-168 -166 0
-169 -166 0
-168 -167 0
-167 -169 0
-168 -169 0
-179 119 105 0
171 -79 0
-178 104 129 0
176 -39 0
171 -33 0
173 -102 0
179 -105 0
173 -75 0
171 -72 0
177 -84 0
-172 141 64 0
178 -104 0
-174 135 29 0
-173 102 75 0
-177 38 84 0
179 -119 0
174 -29 0
176 -81 0
172 -64 0
171 -121 0
177 -38 0
-171 33 72 79 121 0
178 -129 0
174 -135 0
172 -141 0
-176 39 81 0
