c t pmc
p cnf 241 995
c p show 2 3 4 5 6 7 8 9 10 11 12 13 14 15 16 17 18 19 20 21 22 23 24 25 26 27 28 29 30 31 32 33 34 35 36 37 38 39 40 41 42 43 44 45 46 47 48 49 50 51 52 53 54 55 56 57 58 59 60 61 62 63 64 65 66 67 68 69 70 71 72 73 74 75 76 77 78 79 80 81 82 83 84 85 86 87 88 89 90 91 92 93 94 95 96 97 98 99 100 101 102 103 104 105 106 107 108 109 110 111 112 113 114 115 116 117 118 119 120 121 122 123 124 125 126 127 128 129 130 131 132 133 134 135 136 137 138 139 140 141 142 143 144 145 146 147 148 149 150 151 152 153 154 155 156 157 158 159 160 161 162 163 164 165 166 167 168 169 170 171 172 173 174 175 176 177 178 179 180 181 182 183 184 185 186 187 188 189 190 191 192 193 194 195 196 197 198 199 200 201 202 203 204 205 206 207 208 209 210 211 212 213 214 215 216 217 218 219 220 221 222 223 224 225 226 227 228 229 230 231 232 233 234 235 236 237 238 239 240 241 0
-3 2 0
6 -4 -5 0
6 8 -9 -7 0
6 -5 -10 0
-12 -11 0
-13 14 0
-15 -7 0
16 -9 -17 0
-19 18 0
-20 14 0
8 -21 0
-22 -17 0
-24 -23 0
-26 25 0
-15 -18 0
9 -15 -27 0
29 -28 0
-30 18 0
31 -9 -32 0
-34 -33 0
6 -13 -9 -27 0
-14 -35 0
-27 -7 0
37 -22 41 36 39 40 38 0
-42 44 -43 0
6 -37 0
-24 -45 0
-34 -46 0
-33 -23 0
-47 -3 0
38 -48 0
9 -14 -27 0
-14 -7 0
-30 -19 0
6 -49 -9 -7 0
9 -15 -33 0
50 -51 0
-36 -38 0
-52 -18 0
-53 -45 0
-55 54 -56 41 36 0
9 -46 -52 0
6 8 -10 0
57 0
-58 28 59 0
9 -2 -23 0
-60 61 0
-63 62 0
-64 -27 0
9 -65 -23 0
55 -56 -41 0
-24 -46 0
9 -22 -33 0
6 -66 -13 0
9 -52 -7 0
-67 61 0
-68 -35 0
69 -70 0
-71 -20 0
-32 -35 0
-14 -2 0
-67 -60 0
-72 25 0
-73 59 22 68 32 46 17 7 0
6 -8 -74 0
-42 -75 76 0
-77 61 0
-69 78 70 0
6 8 -13 0
-9 79 0
66 13 -14 0
8 -9 -17 0
-40 -38 0
-80 50 0
9 -22 0
9 -52 -18 0
-82 81 0
-9 54 42 -15 0
-46 -23 0
9 -14 -65 0
-78 -35 0
42 -83 0
84 0
-6 -8 66 13 4 49 5 10 85 74 9 0
-87 -86 0
21 30 85 19 -18 0
88 -89 0
90 -91 0
6 -8 -49 0
-92 -60 0
6 -8 -9 -27 0
-69 78 93 0
-94 61 0
96 -95 0
-97 -98 0
9 -65 -68 0
9 -78 -32 0
99 98 -91 0
31 -9 -78 0
9 -2 -7 0
-100 101 0
42 -102 0
6 -74 -9 -32 0
-46 -33 0
9 -15 -2 0
9 -24 -46 0
58 -28 0
-2 -35 0
-9 14 78 15 22 65 68 2 32 24 46 52 61 17 27 18 33 7 23 0
6 -66 -5 0
42 -103 0
-105 104 0
9 -15 -18 0
9 -65 -46 0
9 -46 -33 0
9 -22 -18 0
-22 -32 0
55 56 -36 0
-65 -33 0
106 -107 0
-15 -33 0
-78 -18 0
9 -14 -78 0
6 -8 -66 0
96 -108 0
6 -49 -10 0
31 -9 -61 0
-15 -22 0
9 -65 -2 0
109 111 110 0
-9 54 -42 -15 0
-24 -52 0
-17 -35 0
-112 65 0
-113 -114 0
6 -49 -9 0
117 115 67 116 118 77 92 60 -61 0
120 -119 0
8 -30 0
-116 -77 0
6 -66 -9 -46 0
121 26 -76 0
-52 -17 0
-25 106 -122 0
37 22 0
-64 -23 0
6 -49 -85 0
53 123 125 124 -32 0
82 -81 0
55 -36 0
-9 126 0
-77 -60 0
9 -22 -52 0
-71 -127 0
6 -4 -9 0
6 -49 -9 -27 0
-128 114 0
42 -129 0
9 -61 -17 0
9 -32 -23 0
9 -78 -23 0
6 -85 -9 -32 0
6 -66 -9 0
16 -9 -22 0
9 -27 -7 0
6 -49 -9 -32 0
-92 61 0
6 -9 -46 -27 0
-121 25 106 0
-8 21 30 9 0
9 -68 0
-86 -130 0
-32 -27 0
-115 -60 0
9 -65 0
30 -56 2 17 0
9 -14 -32 0
120 -40 0
-34 -61 0
6 -85 -9 -7 0
-131 25 76 0
-132 111 0
-52 -27 0
-133 -34 0
99 97 98 0
135 134 0
121 26 25 -106 122 0
9 -78 -24 0
9 -24 -33 0
-46 -136 0
137 138 112 -65 0
69 78 -93 0
9 -33 -23 0
-66 -13 0
-64 -34 0
6 -13 -5 0
-68 -46 0
-53 -124 0
9 -22 -32 0
9 -78 -17 0
139 32 24 27 33 7 -140 0
141 0
-22 -24 0
-142 34 0
9 -14 -17 0
9 -68 -2 0
6 -49 0
-24 -27 0
6 -8 -9 -32 0
16 -9 -15 0
144 143 94 -61 0
-38 48 0
-133 -145 0
-35 -23 0
6 -5 -9 -7 0
-147 -146 0
-61 -23 0
-26 106 -122 0
148 0
-115 -116 0
-46 -27 0
6 -66 -9 -27 0
73 -9 -17 0
-22 -52 0
6 -9 -32 -7 0
4 -15 0
49 5 -68 0
-53 -123 0
29 -9 -2 0
6 -66 -10 0
58 -9 -52 0
-22 -27 0
6 -49 -74 0
-61 -35 0
-22 -35 0
6 -66 0
-58 9 0
149 0
150 0
-2 -17 0
-104 151 0
45 -152 0
95 -153 0
-2 -23 0
53 15 22 65 68 2 24 52 17 35 -45 0
6 -85 -74 0
30 9 -56 0
-115 -77 0
9 -24 -23 0
9 -15 -24 0
-34 -32 0
155 -154 0
-17 -7 0
156 -157 0
-85 18 0
-158 33 0
-99 -98 0
9 -32 -27 0
9 -78 -52 0
-139 159 0
8 -9 -2 0
-24 -35 0
-137 65 0
-160 136 0
9 -78 -46 0
-78 -65 0
-161 162 0
42 -163 0
6 -9 -27 -7 0
-15 -17 0
-164 19 0
16 -9 -61 0
-165 145 0
9 -15 -52 0
6 -9 -32 -46 0
166 -167 0
9 -22 -27 0
6 8 -66 0
9 -68 -23 0
-24 -17 0
6 -5 -9 -32 0
6 -10 -85 0
-18 -23 0
6 -5 0
-68 -2 0
-68 -7 0
14 78 15 22 65 68 2 32 24 46 52 61 17 35 27 18 33 7 23 0
9 -65 -33 0
-15 -68 0
95 -168 0
42 -169 0
-61 -33 0
6 -13 -85 0
9 -17 0
-67 -77 0
-22 -45 0
-68 -18 0
-78 -52 0
-146 -11 0
-117 -67 0
170 0
171 -172 0
6 -49 -5 0
9 -14 -24 0
55 -54 -36 0
6 -13 -9 -7 0
6 -8 -5 0
-14 -46 0
173 0
6 -5 -9 0
-158 -174 0
6 8 -9 -46 0
9 -32 -46 0
-46 -17 0
-118 -77 0
-175 176 0
9 -14 -23 0
-78 -17 0
9 -22 -7 0
6 -74 -9 -46 0
-41 -38 0
9 -65 -7 0
-123 -125 0
-14 -23 0
-2 -46 0
6 -5 -9 -46 0
65 -41 0
-144 -94 0
-139 32 24 27 33 7 -140 0
9 -68 -17 0
-15 -61 0
9 -78 0
-177 27 0
-80 -51 0
-78 -23 0
119 -9 0
9 -18 -7 0
-22 -178 0
-133 -45 0
120 -119 9 0
9 -14 -18 0
-96 95 108 0
96 -95 -108 0
9 -32 -18 0
-16 78 15 22 68 32 24 52 61 17 27 18 33 7 23 0
-131 76 0
42 -179 0
-147 -11 0
9 -65 -18 0
-181 -180 0
6 -9 -7 0
182 -183 0
6 -9 -32 0
-120 2 17 39 40 38 0
-35 -7 0
-184 50 0
29 -9 -24 0
73 -9 0
185 25 -186 0
-46 -52 0
6 -85 0
6 -4 -9 -27 0
-74 187 0
-65 -7 0
-78 -32 0
188 0
-78 -46 0
6 8 -85 0
6 -85 -9 -46 0
189 -45 0
16 -9 -27 0
9 -22 -46 0
159 -190 0
31 -9 -7 0
9 -78 -27 0
62 -45 0
-78 -61 0
120 -9 -17 0
9 -14 -15 0
-32 -17 0
-121 106 -122 0
-64 -18 0
133 145 0
9 -61 -27 0
-147 -86 0
-44 43 191 0
16 -9 -18 0
-95 -108 0
-184 -51 0
-2 -61 0
-37 -192 0
-68 -17 0
-86 -180 0
-18 -7 0
-131 25 0
193 177 -27 0
-194 114 0
-78 -33 0
-159 79 195 0
-117 -60 0
-10 133 0
-117 61 0
16 -64 0
-115 -92 0
-87 -11 0
9 -52 -27 0
-54 42 15 196 0
42 -196 0
9 -18 0
9 -68 -32 0
9 -78 -68 0
-125 32 0
9 -22 -68 0
-29 28 10 9 0
73 -9 -46 0
-66 14 0
9 -61 -23 0
50 -114 0
-42 44 -191 0
-116 -118 0
-118 61 0
9 -7 0
-4 15 0
-146 -86 0
6 -85 -9 0
-65 -45 0
6 8 -9 0
42 -197 0
9 -2 -32 0
9 -27 -23 0
-198 25 0
69 78 -70 0
6 -4 -49 0
-34 -7 0
-85 -19 0
120 -39 0
55 -56 -36 0
-79 -195 0
-22 -18 0
-68 -33 0
42 -200 199 0
-49 68 0
6 -13 -9 -46 0
158 174 -33 0
73 -59 0
-12 -146 0
-34 -45 0
9 -22 -61 0
-46 -7 0
-138 65 0
-201 -86 0
-99 -97 0
-65 -2 0
6 -66 -4 0
86 202 181 180 0
-78 -24 0
204 203 -46 0
9 -46 0
6 8 -4 0
159 -195 0
9 -52 -61 0
54 -42 -196 0
9 -2 -18 0
-11 -86 0
-114 205 0
6 -74 -9 0
6 -66 -74 0
-69 -78 70 0
-15 -23 0
-120 119 0
-21 -19 0
-16 9 0
-31 78 32 61 7 0
-113 114 0
9 -65 -61 0
6 -66 -9 -7 0
-14 -22 0
9 -78 -7 0
73 -9 -68 0
-206 25 0
-34 -14 0
31 -207 0
-29 28 10 15 2 24 27 33 0
-126 -155 0
29 -10 0
9 -78 -2 0
-87 -146 0
-109 111 -110 0
-35 -27 0
-82 -136 0
-138 -112 0
9 -14 -46 0
9 -33 0
-37 -36 0
-6 -8 66 13 4 49 5 10 85 74 32 46 27 7 0
208 0
-201 -146 0
-100 209 210 -155 0
16 -9 -7 0
-22 -68 0
47 3 -2 0
9 -68 -24 0
-69 -78 93 0
-211 15 0
-34 -18 0
-73 59 9 0
-200 199 0
9 -17 -18 0
-33 -7 0
6 -13 -9 0
109 110 0
46 194 82 -114 136 0
10 -35 0
9 -46 -17 0
6 -4 -74 0
9 -22 -24 0
9 -14 -22 0
9 -68 -61 0
-14 -65 0
9 -46 -61 0
-9 187 0
6 -8 -13 0
25 -212 0
-53 32 0
-115 -67 0
-78 -22 0
-39 -38 0
-201 -11 0
9 -2 -24 0
25 -75 76 0
12 147 87 201 146 11 86 0
-37 -39 0
-116 -92 0
114 -136 0
-31 9 0
120 -9 -2 0
-147 -87 0
55 -54 -56 0
-78 -68 0
-125 -124 0
-68 -23 0
-143 61 0
9 -2 -52 0
6 -8 -85 0
-209 -210 0
-2 -18 0
9 -78 -18 0
58 -9 -61 0
156 -182 0
9 -14 -68 0
9 -15 -65 0
-65 -68 0
106 -122 0
-52 -33 0
6 -13 0
9 -15 -32 0
6 -66 -49 0
9 -61 0
-22 -65 0
42 43 -213 0
-194 -82 0
-14 -61 0
-205 -134 0
-14 -17 0
6 8 -5 0
128 -214 0
78 32 61 27 -196 0
-17 -18 0
9 -78 -61 0
-117 -118 0
9 -52 0
-27 -23 0
16 -9 -52 0
-215 155 0
-52 -7 0
-42 78 32 61 27 0
-9 54 -15 0
-142 145 0
100 -210 0
9 -24 -18 0
55 56 -41 0
6 8 -49 0
213 -216 0
164 -19 -18 0
22 -36 0
9 -2 -27 0
32 24 27 33 7 -140 0
9 -15 -22 0
6 -13 -4 0
-217 111 0
9 -32 -33 0
-27 -33 0
-22 -23 0
9 -15 0
-15 -24 0
9 -52 -17 0
9 -32 -52 0
-139 32 24 27 33 7 140 0
-36 -39 0
-14 -18 0
6 -10 -9 -32 0
-14 -33 0
-124 32 0
58 -59 0
6 -4 -85 0
16 -9 -23 0
-14 -32 0
-7 -23 0
-34 -23 0
-203 46 0
-37 -38 0
9 -46 -7 0
9 -15 -23 0
6 8 -74 0
80 184 -50 51 0
9 -68 -7 0
-67 -118 0
-174 33 0
9 -24 -61 0
16 -9 -33 0
29 -9 -27 0
-86 -202 0
-22 -7 0
58 -9 -78 0
-202 -180 0
-65 -23 0
-17 -45 0
6 -4 -10 0
-123 32 0
213 -218 0
9 -68 -46 0
-118 -92 0
-12 -147 0
-121 25 0
-32 -7 0
6 -10 -9 0
9 -24 -52 0
16 -9 -32 0
25 106 -122 0
-15 -27 0
-52 -45 0
-207 219 0
-30 56 0
-147 -201 0
-144 -143 0
37 22 -36 0
-133 -64 0
6 -74 -9 -27 0
-61 -7 0
53 15 22 65 68 2 24 52 17 35 0
-12 -201 0
-87 -201 0
-9 56 -2 0
9 -33 -7 0
-49 -5 0
-24 -61 0
139 -140 0
-32 -24 0
-42 78 32 61 27 -196 0
-58 14 78 65 52 61 18 0
6 8 -9 -27 0
9 -46 -23 0
-78 -7 0
9 -14 0
-15 -65 0
-9 56 -17 0
-68 -52 0
9 -17 -23 0
-15 -45 0
6 -9 -46 -7 0
-14 -15 0
-64 -78 0
-42 -131 76 0
-78 -2 0
6 -8 -9 -46 0
9 -27 0
-24 -33 0
9 -2 -33 0
111 -110 0
-2 -33 0
-42 25 -75 0
6 -5 -85 0
-193 27 0
16 -9 -78 0
-220 25 0
-123 -124 0
9 -65 -27 0
58 -9 -14 0
37 -65 41 36 39 40 38 0
9 -2 -61 0
-117 -116 0
9 -61 -33 0
-64 -33 0
221 0
-15 -32 0
-210 155 0
159 -128 0
-32 -61 0
-39 -40 0
54 42 -196 0
9 -22 -2 0
-18 -33 0
-78 -15 0
71 127 20 -14 0
9 -23 0
121 26 -186 0
55 -41 -36 0
-212 107 0
6 -5 -74 0
42 -222 0
-14 -24 0
8 -9 0
6 -9 -46 0
-15 -2 0
37 -98 0
-15 -35 0
9 -15 -7 0
-68 -27 0
-64 -32 0
-78 -27 0
9 -78 -22 0
9 -78 -65 0
-223 159 0
-117 -92 0
-100 -224 0
225 0
-64 -61 0
-42 44 -43 -191 0
-10 35 0
-68 -61 0
-71 14 0
6 -10 -9 -7 0
-14 -78 0
6 -10 0
9 -2 -46 0
-52 -61 0
-135 -134 0
25 -107 0
6 -13 -74 0
133 64 34 45 0
-24 -7 0
-64 -46 0
-37 -40 0
16 -9 -24 0
-75 76 0
9 -24 0
-14 -52 0
9 -68 -27 0
-41 -36 0
6 -66 -9 -32 0
-119 -42 0
-27 -18 0
6 -74 -9 -7 0
-226 155 0
-65 -52 0
-65 -35 0
-121 -25 106 0
9 -68 -52 0
-227 159 0
-26 106 0
9 -52 -23 0
9 -61 -18 0
6 -10 -9 -46 0
-86 -228 0
9 -15 -68 0
42 -191 0
-64 -14 0
-65 -32 0
-127 14 0
6 -13 -49 0
9 -54 42 196 0
-28 -59 0
-53 -125 0
-64 -45 0
182 -229 0
6 -8 -10 0
-34 -27 0
-137 -112 0
-2 -7 0
-24 -18 0
-202 -181 0
-77 -92 0
-68 -32 0
-127 -20 0
6 -10 -74 0
-22 -46 0
42 -230 0
-143 -94 0
9 -18 -23 0
37 41 36 39 40 38 0
-69 93 0
-120 9 39 40 38 0
9 -14 -52 0
9 -54 42 15 196 0
-116 61 0
9 -14 -33 0
9 -61 -7 0
-139 32 24 27 33 7 0
9 -14 -2 0
-194 -136 0
9 -15 -61 0
9 -22 -23 0
-22 -2 0
-69 70 0
6 -49 -9 -46 0
-9 56 0
-12 -87 0
9 -17 -27 0
9 -32 -61 0
9 -18 -33 0
-185 25 186 0
6 -13 -9 -32 0
6 -9 -32 -27 0
-2 -52 0
-231 78 0
-193 -177 0
-67 -116 0
-118 -60 0
104 -232 0
-15 -46 0
6 -66 -85 0
-65 -18 0
55 -41 0
6 8 -9 -32 0
25 -75 0
-137 -138 0
16 -9 0
-9 133 0
104 -151 0
-233 -134 0
114 -234 0
-17 -33 0
73 -9 -7 0
25 -76 0
-21 18 0
42 -235 0
-9 54 -15 -196 0
185 -186 0
9 -27 -33 0
25 -122 0
-47 2 0
-115 -118 0
6 -8 -9 0
-35 -33 0
-8 21 30 22 65 2 17 0
9 -126 0
-116 -60 0
9 -68 -18 0
-42 -200 199 0
-65 -61 0
-121 -26 106 0
6 -4 -9 -7 0
-144 61 0
-22 -61 0
29 -9 -33 0
-2 -32 0
6 -8 -4 0
58 -9 -18 0
-2 -24 0
16 -9 -68 0
-30 -85 0
-34 62 0
-46 -35 0
6 -74 0
-204 -203 0
-52 -23 0
8 -9 -65 0
9 -15 -17 0
55 -54 -41 0
-86 -181 0
9 -22 -65 0
25 -186 0
9 -17 -7 0
9 -68 -33 0
236 0
9 -17 -33 0
-204 46 0
-17 -27 0
6 -4 -9 -32 0
9 -15 -46 0
-65 -178 0
9 -32 -7 0
9 -14 -61 0
9 -24 -17 0
-237 50 0
29 -9 0
6 -8 -9 -7 0
9 -52 -33 0
-238 187 0
9 -24 -27 0
54 -196 0
-61 -27 0
50 -190 0
-36 -40 0
-32 -18 0
37 192 0
-68 -24 0
9 -46 -27 0
6 -9 0
29 -9 -15 0
9 -65 -32 0
-2 -45 0
-82 114 0
-69 78 0
6 -9 -27 0
-22 -33 0
9 -14 -7 0
-15 -52 0
6 -4 -9 -46 0
-61 -17 0
-32 -23 0
42 -44 0
9 -46 -18 0
-32 -33 0
-65 -24 0
6 -10 -9 -27 0
-21 -85 0
-45 152 0
-17 -23 0
-35 -18 0
9 -65 -52 0
-80 -184 0
-35 -45 0
-41 -40 0
-46 -61 0
-65 -46 0
194 82 -114 136 0
73 -9 -22 0
-5 68 0
6 -13 -10 0
-68 -45 0
-37 -41 0
9 -65 -17 0
-115 61 0
6 -4 0
-2 -27 0
9 -65 -24 0
-86 -205 0
9 -7 -23 0
-26 -25 106 0
-117 -115 0
-117 -77 0
42 -239 0
-32 -46 0
-61 -18 0
9 -2 0
9 -27 -18 0
-12 -86 0
9 -22 -17 0
-6 -8 66 13 4 49 5 10 85 74 9 32 46 27 7 0
120 -9 0
9 -78 -15 0
-21 -30 0
58 -9 0
42 -213 0
42 -200 0
9 -32 0
120 -38 0
-65 -17 0
-26 25 106 0
55 -54 0
-42 -131 25 0
-240 241 0
58 -9 -65 0
-14 -68 0
8 -9 -22 0
-64 -7 0
9 -78 -33 0
185 -25 -186 0
55 -54 56 0
-65 -27 0
9 -32 -24 0
-67 -92 0
-189 45 0
-209 155 0
42 200 -199 0
-10 79 0
9 -24 -7 0
9 -2 -17 0
9 -32 -17 0
-41 -39 0
42 -43 0
-46 -18 0
73 -9 -32 0
100 -209 0
-52 -35 0
-164 18 0
-14 -27 0
6 -5 -9 -27 0
-121 106 0
-32 -52 0
6 -85 -9 -27 0
-25 0
-47 0
230 0
