c t pmc
p cnf 213 1043
c p show 2 3 4 5 6 7 8 9 10 11 12 13 14 15 16 17 18 19 20 21 22 23 24 25 26 27 28 29 30 31 32 33 34 35 36 37 38 39 40 41 42 43 44 45 46 47 48 49 50 51 52 53 54 55 56 57 58 59 60 61 62 63 64 65 66 67 68 69 70 71 72 73 74 75 76 77 78 79 80 81 82 83 84 85 86 87 88 89 90 91 92 93 94 95 96 97 98 99 100 101 102 103 104 105 106 107 108 109 110 111 112 113 114 115 116 117 118 119 120 121 122 123 124 125 126 127 128 129 130 131 132 133 134 135 136 137 138 139 140 141 142 143 144 145 146 147 148 149 150 151 152 153 154 155 156 157 158 159 160 161 162 163 164 165 166 167 168 169 170 171 172 173 174 175 176 177 178 179 180 181 182 183 184 185 186 187 188 189 190 191 192 193 194 195 196 197 198 199 200 201 202 203 204 205 206 207 208 209 210 211 212 213 0
-2 3 0
-4 -5 0
-6 20 19 13 16 7 9 21 15 17 14 8 2 12 11 18 -10 0
-22 -23 0
30 22 37 32 34 42 4 27 35 43 36 29 41 31 28 26 10 24 38 40 33 5 23 25 -39 0
-45 44 46 0
-47 -48 0
-7 -14 0
-49 -50 0
-32 -43 0
-27 -25 0
-4 -43 0
-51 39 0
45 53 -52 0
54 0
-55 -39 0
-34 -26 0
-15 56 0
-26 62 -59 63 57 60 61 58 0
-32 -40 0
-20 -13 0
-32 -33 0
36 -64 0
66 -34 -65 0
-7 -11 0
6 69 -67 68 0
-37 -35 0
25 -70 0
-73 49 74 71 72 62 0
6 -75 0
-16 -18 0
-13 -9 0
76 -24 0
-30 -26 0
77 -78 0
-9 -15 0
5 -79 0
73 -71 0
-31 -10 0
-28 -26 0
34 -80 0
3 -81 0
-33 -5 0
-38 -5 0
26 -57 0
-31 -23 0
41 -71 0
-7 -21 0
-42 -43 0
-35 -24 0
59 78 -61 0
-22 -36 0
-6 -20 82 0
83 -84 0
66 -34 -85 0
-37 -40 0
86 -62 0
-6 -69 67 68 0
-87 -39 0
-10 -23 0
-53 52 -90 -89 88 0
34 -91 0
-92 83 0
-27 -33 0
-19 93 0
94 -53 0
-4 -36 0
-30 -34 0
-17 -12 0
-12 77 -62 0
89 -36 0
-13 -14 0
-21 -11 0
86 -95 0
-47 96 97 0
-35 -38 0
-91 -98 0
-26 -25 0
-15 -17 0
-22 -37 0
6 -99 0
-8 -12 0
-41 -40 0
3 -100 0
-20 -2 0
101 -31 0
-17 101 0
-52 -89 88 0
-53 -89 88 0
-102 48 53 0
103 -87 0
19 7 17 8 2 -104 0
-16 -12 0
-106 105 0
-6 107 -69 0
-6 -7 107 -69 0
6 -107 108 69 0
-27 -5 0
41 -74 0
6 -68 89 0
47 45 48 53 -89 -109 0
6 -7 0
5 -110 0
-111 0
-6 114 -113 69 112 0
-6 7 17 107 115 -108 0
7 -116 0
26 -117 0
-91 -118 0
-24 -38 0
-55 -31 119 0
-42 -26 0
120 -121 0
-4 -33 0
-32 -27 0
-45 46 0
-31 -26 0
-6 104 123 122 0
-7 -9 0
-40 -23 0
34 -124 0
-125 -50 0
-43 -33 0
-21 -17 0
-28 -10 0
6 -11 0
34 -116 0
-92 112 0
-126 34 0
6 -127 89 31 87 39 0
36 -128 0
-63 -57 0
-34 -10 0
-71 -72 0
129 -87 0
-37 -42 0
6 -130 47 45 55 87 39 0
6 -17 0
6 -67 68 0
69 -131 0
-6 68 0
136 -31 133 132 134 135 0
-63 -60 0
-42 -31 0
45 53 -52 89 -88 0
-93 37 4 62 0
6 -23 0
-62 -58 0
-104 -122 0
-30 -38 0
-53 88 0
-9 -11 0
-103 136 -31 -5 133 132 134 135 0
-65 137 0
-32 -42 0
139 -138 0
36 -109 0
127 -89 0
34 -65 0
-38 -40 0
-28 -40 0
21 -140 0
-6 127 0
-41 -24 0
41 -72 0
-6 -82 113 0
-20 141 0
-45 89 0
41 -100 0
-142 -143 0
47 48 -144 0
-21 -12 0
30 22 37 32 34 42 4 27 35 43 36 29 41 31 28 26 10 24 38 40 33 5 23 25 -87 0
-45 52 -44 46 -89 -88 0
-35 -33 0
145 -146 0
6 -40 0
-60 147 0
-37 -38 0
-10 -25 0
-37 -28 0
-30 -4 0
-4 -24 0
-24 -5 0
-36 -26 0
148 0
42 -49 0
-31 -25 0
-43 -31 0
-55 -150 149 0
6 -151 0
-42 -38 0
101 -136 0
45 53 -46 89 0
-153 152 0
-62 -78 0
-7 -63 0
-35 -31 0
-6 7 17 107 115 -69 0
-55 -89 0
6 -19 0
-21 115 0
-62 -61 0
112 -154 0
-43 -25 0
42 -155 0
-27 -24 0
36 -97 0
-37 -33 0
-89 30 22 37 32 34 42 4 27 35 43 36 29 41 31 28 26 10 24 38 40 33 5 23 25 0
-22 -25 0
92 -114 -112 55 0
-95 -125 0
-2 -26 -152 147 0
51 -39 0
-2 -34 116 137 156 124 0
90 -89 88 0
135 -157 0
139 -31 0
-64 -128 0
-19 -17 0
-34 -4 0
73 -62 0
78 -57 0
-42 -10 0
-4 -29 0
-32 -4 0
-34 -5 0
6 -107 0
47 45 48 53 -89 -97 0
31 5 -134 0
-92 -39 0
-92 -87 0
-21 -18 0
-11 23 0
-50 -146 0
-10 -33 0
-72 -158 0
-30 -40 0
-35 -43 0
-27 -35 0
-22 -43 0
-19 -15 0
26 -62 0
-21 159 0
77 -30 0
-26 62 63 57 60 61 58 -140 0
-6 20 19 13 16 7 9 21 15 17 14 8 2 12 11 18 -23 0
-32 -36 0
-14 115 0
-9 -14 0
-22 -4 0
77 -33 0
-161 -160 0
-66 34 0
-42 -41 0
-6 107 -108 0
-43 -23 0
26 -147 0
-44 22 36 38 0
-29 -41 0
-10 -38 0
159 -158 0
92 -83 55 0
-16 -9 0
-6 -8 75 0
103 -39 0
-26 -40 0
6 -26 0
-53 52 0
-42 -29 0
162 94 0
163 -47 0
26 -78 0
6 -24 0
165 -164 0
-90 36 38 0
-47 89 0
-6 -104 106 151 -105 0
-14 -11 0
6 -20 0
-15 -2 0
-7 166 0
34 -98 0
-141 125 0
-167 23 0
-26 -33 0
150 -168 0
-15 101 0
-55 30 22 37 32 34 42 4 27 35 43 36 29 41 31 28 26 10 24 38 40 33 5 23 25 0
-19 -8 0
-63 -61 0
45 53 44 -46 0
-7 -34 116 137 156 124 0
-31 -38 0
85 -118 0
136 -169 0
89 -38 0
-76 24 0
-40 -5 0
3 -62 0
6 -37 0
73 -49 0
-6 -115 108 0
-14 -18 0
-133 -134 0
-42 -24 0
-59 -152 0
69 -67 68 0
-26 62 63 57 60 61 58 -147 0
-98 -118 0
-40 -25 0
103 -143 0
-30 -23 0
7 21 15 17 14 2 12 -101 22 32 64 31 0
-37 -26 0
6 -170 0
-22 -27 0
-29 -25 0
-42 171 95 125 49 50 146 0
159 -146 0
-66 85 65 0
-22 -35 0
150 -172 0
6 -21 0
-13 -7 0
-16 -7 0
-35 -5 0
-6 -150 149 0
-42 -4 0
-2 -18 0
-38 -23 0
-27 -31 0
-57 -61 0
173 0
-14 159 0
-22 -26 0
-17 -8 0
-22 -28 0
85 -98 0
-4 -26 0
-174 0
-27 -10 0
-21 -26 -152 140 0
-28 -24 0
-6 -17 75 0
-36 -31 0
-31 -24 0
-47 -45 0
-165 31 0
6 -104 0
6 -41 0
-32 -25 0
-106 -151 0
-35 -36 0
-34 -41 0
-175 62 59 0
-30 -37 0
-28 -25 0
-143 -176 0
6 -18 0
-32 -34 0
6 -27 0
152 -117 0
-81 177 91 0
-37 -4 0
-36 -24 0
83 -55 0
44 -22 0
-6 113 -75 0
93 -62 0
-12 -18 0
93 -37 0
-6 20 19 13 16 7 9 21 15 17 14 8 2 12 11 18 -153 0
2 -156 0
-38 -33 0
162 -87 0
145 -40 0
-7 101 0
-20 -7 0
-38 96 0
45 53 -52 -46 0
-31 -5 133 132 134 135 0
-133 -132 0
-37 -41 0
-92 108 0
-62 -63 0
-37 -27 0
-36 -40 0
-13 -15 0
-132 -134 0
-45 -52 88 0
66 -34 -85 -65 0
-26 62 63 57 60 61 58 -117 0
6 -25 0
-156 -124 0
3 -152 0
178 0
150 -179 0
-13 -11 0
77 -50 0
-7 -15 0
-6 20 19 13 16 7 9 21 15 17 14 8 2 12 11 18 -174 0
-42 -27 0
-6 20 19 13 16 7 9 21 15 17 14 8 2 12 11 18 -73 0
-116 -137 0
-6 20 19 13 16 7 9 21 15 17 14 8 2 12 11 18 -86 0
-9 -18 0
-4 -40 0
-27 -36 0
-6 -104 106 151 -126 0
92 113 -112 55 0
-7 -8 0
-4 -41 0
-43 -40 0
-6 -87 0
-35 -29 0
-53 -52 88 0
41 -158 0
94 -48 0
-151 126 0
180 150 -179 0
-27 -38 0
-42 -36 0
-35 -26 0
22 32 38 -96 0
-45 -53 88 0
33 -181 0
-22 -5 0
12 -77 30 81 50 100 59 78 33 25 0
-20 -21 0
34 -121 0
104 -151 0
-33 -23 0
-182 0
-9 -12 0
-86 171 95 4 27 62 0
19 7 17 8 2 -122 0
-12 175 0
77 -81 0
-35 -28 0
-57 -60 0
-45 46 89 0
183 -128 0
-105 34 0
92 6 55 89 87 39 0
3 -33 0
-30 -27 0
-43 -26 0
184 0
6 -2 0
-13 -2 0
-10 -5 0
136 -5 133 132 134 135 0
6 -10 0
-22 -34 0
6 -114 0
34 -177 0
-19 -2 0
-161 -185 0
-45 90 88 0
-6 -17 107 -69 0
-171 -49 0
-30 -35 0
-43 -5 0
6 -42 0
-137 -156 0
-37 -36 0
130 -47 0
127 -87 0
-63 -58 0
-186 0
-13 -12 0
-31 -40 0
-85 98 118 0
6 -34 0
6 -113 0
-6 107 -108 -69 0
-30 -5 0
-71 -100 0
-171 -146 0
-34 -120 121 0
-19 -12 0
-19 -18 0
-34 177 91 98 118 0
-20 -12 0
31 -133 0
-22 -31 0
-35 -25 0
-41 -38 0
-183 64 128 0
-31 -33 0
-95 -49 0
-69 131 -85 0
-21 153 0
-35 39 0
-29 -33 0
-45 89 88 0
-95 -50 0
-187 112 0
3 -50 0
47 45 48 53 -89 -96 0
42 -188 0
3 -30 0
-6 107 -115 -69 0
-171 -125 0
-189 190 0
-168 31 5 0
-37 -5 0
-49 -146 0
-6 -19 82 0
-24 -23 0
6 -122 0
-2 -42 188 155 0
-78 -152 0
-191 31 0
31 -119 0
-6 -69 67 -68 0
-8 -18 0
187 -112 154 0
-43 -38 0
-57 -58 0
2 -188 0
-32 -24 0
-30 -28 0
-24 -25 0
-30 -24 0
-61 -58 0
127 -39 0
-21 -2 0
-22 -33 0
-30 -25 0
-35 -23 0
-45 -52 46 0
7 17 -107 115 108 69 0
-43 -41 0
-42 -23 0
130 -39 0
-16 -14 0
-53 46 0
-87 192 0
25 -193 0
108 -53 0
89 -194 0
82 -113 75 115 0
-2 -11 0
-30 -31 0
-10 -24 0
-53 -52 46 0
45 53 89 -88 0
42 -125 0
-20 -9 0
-69 -124 0
77 -25 0
-45 52 0
-53 109 0
-29 -10 0
-163 47 45 0
-16 -11 0
86 -27 0
-14 -2 0
103 -132 0
-40 -33 0
-17 -2 0
-22 -10 0
-6 30 22 37 32 34 42 4 27 35 43 36 29 41 31 28 26 10 24 38 40 33 5 23 25 0
-185 -160 0
-19 -14 0
142 143 176 0
-69 -137 0
166 -152 0
-42 -35 0
-6 -7 107 -108 0
-22 -42 0
31 -135 0
55 -5 0
-27 -43 0
-24 -40 0
26 -63 0
-45 -89 88 0
6 -195 0
68 -89 0
-14 -12 0
101 -22 0
-123 -122 0
-189 133 0
162 -39 0
-26 -24 0
26 -61 0
-196 77 0
-36 -28 0
-13 -21 0
-28 -33 0
-6 113 -115 0
-37 -25 0
77 -100 0
166 -85 0
87 -192 0
-36 -23 0
-45 88 0
-188 -155 0
-15 -8 0
-74 -100 0
-35 -41 0
89 -197 0
-6 20 19 13 16 7 9 21 15 17 14 8 2 12 11 18 -141 0
-125 -146 0
-129 87 0
-33 198 181 0
-115 -130 47 45 55 87 39 0
-41 -31 0
-15 -11 0
-41 -26 0
89 -199 0
-43 -29 0
-45 -53 46 0
26 -152 0
-29 87 0
-29 -24 0
-13 -8 0
-7 -18 0
26 -140 0
-28 87 0
-13 -16 0
6 -200 0
-34 80 0
-7 -26 -152 117 0
3 -78 0
42 -95 0
-30 -22 0
-9 -17 0
180 -55 0
-26 62 -78 63 57 60 61 58 0
167 -23 0
-136 169 0
-89 -39 0
-36 64 128 0
21 15 14 -115 0
-34 -43 0
-171 -50 0
-38 -25 0
-27 -29 0
-12 101 0
6 -8 0
-20 -16 0
-19 -16 0
92 -69 -112 55 0
-20 -18 0
105 -34 0
-41 -28 0
-74 -72 0
-13 -18 0
6 -9 0
102 -53 0
-22 -32 0
-19 -13 0
42 -171 0
-14 -8 0
34 -118 0
-6 20 19 13 16 7 9 21 15 17 14 8 2 12 11 18 -93 0
-142 -176 0
-26 -38 0
45 53 90 89 -88 0
150 -201 0
-122 -69 0
-45 186 109 0
-177 -118 0
-166 85 158 152 0
-32 -5 0
-19 -11 0
86 -171 0
-16 -8 0
7 9 17 2 -195 0
-6 -12 82 0
-132 -135 0
150 -149 0
159 -85 0
89 -22 0
-42 -25 0
-7 -12 0
26 -59 0
-48 97 0
-34 -40 0
202 -39 0
-26 62 59 78 152 0
6 -82 0
126 -34 0
-32 -35 0
-53 44 46 0
-12 -11 0
-20 -19 0
92 -94 48 53 0
-37 -29 0
-30 -41 0
-89 199 0
-27 -41 0
-4 -10 0
127 -203 0
-6 107 -115 -108 0
-17 -11 0
-74 -158 0
-30 -29 0
26 -60 0
204 -87 0
-27 -28 0
33 -205 0
-34 -36 0
-14 101 0
-55 -87 0
34 -156 0
-2 -12 0
-36 -41 0
-72 -100 0
31 5 -132 0
-28 -5 0
7 9 17 8 2 -75 0
-58 117 140 0
-206 10 0
-37 -24 0
-21 -8 0
-187 -154 0
6 -106 0
-42 -5 0
-31 -28 0
-17 -14 0
112 -55 0
-139 31 0
-22 -24 0
-62 -152 0
-36 97 0
-47 -53 0
-30 -33 0
92 55 -190 0
-42 -40 0
33 -207 0
-53 89 88 0
-41 -33 0
-89 197 194 0
-137 -124 0
-92 30 22 37 32 34 42 4 27 35 43 36 29 41 31 28 26 10 24 38 40 33 5 23 25 0
-43 -36 0
103 -176 0
-17 -18 0
-34 -31 0
42 -146 0
92 6 55 -149 0
34 -137 0
-16 -21 0
6 -4 0
130 -45 0
-21 101 0
-21 -14 0
-162 -94 87 39 0
-3 30 81 50 100 62 78 152 33 25 0
31 -208 0
-30 -32 0
-4 -31 0
-62 -57 0
-20 -8 0
-4 -27 0
-26 -23 0
-16 -15 0
-53 90 88 0
-92 180 0
-9 -8 0
86 -4 0
2 -147 0
-19 -7 0
-125 -49 0
-27 -40 0
-136 -135 0
-29 -28 0
-60 -61 0
-37 -10 0
-30 -42 0
-92 -6 0
-69 159 0
-6 -7 75 0
-6 20 19 13 16 7 9 21 15 17 14 8 2 12 11 18 -145 0
-45 46 88 0
-6 20 19 13 16 7 9 21 15 17 14 8 2 12 11 18 -56 0
108 -48 0
-20 -17 0
159 -89 0
-6 20 19 13 16 7 9 21 15 17 14 8 2 12 11 18 -182 0
-4 -38 0
6 -14 0
92 6 -112 55 0
-9 182 0
6 -43 0
-36 -25 0
-6 115 130 0
-34 -27 0
-70 -193 0
89 -32 0
-100 -158 0
-48 89 0
-34 -28 0
180 -179 0
93 -4 0
92 6 -108 48 53 0
-19 -21 0
69 -34 116 137 156 124 0
-89 -87 0
-53 46 88 0
-60 -58 0
-133 -135 0
-22 -41 0
-62 -59 0
165 -31 0
7 21 15 14 -159 89 85 146 43 158 31 0
-104 -123 0
2 -155 0
150 -5 0
-22 -40 0
81 -177 0
-116 -124 0
-74 -71 0
6 7 17 -107 115 108 69 0
83 150 -84 0
45 53 -46 88 0
-59 -78 0
-32 -23 0
-35 -10 0
6 -12 0
55 -119 0
26 -58 0
-36 -38 0
-26 -5 0
-15 115 0
-136 -134 0
-15 -12 0
-41 -23 0
-6 -89 0
-42 -33 0
73 -72 0
31 5 -133 0
136 -31 -5 133 132 134 135 0
153 -152 0
206 -10 0
-16 -17 0
209 0
-6 -2 75 0
-30 -43 0
6 -16 0
-14 174 0
-34 -29 0
-31 133 132 134 135 0
-5 -23 0
150 -172 -5 0
90 -38 0
19 -114 0
130 -87 0
-37 -31 0
44 -38 0
-29 -38 0
31 5 -135 0
-41 -10 0
-34 -35 0
34 -65 137 0
-53 46 89 0
-10 -40 0
-48 144 0
81 -65 137 0
-41 74 71 72 100 158 0
-48 -53 0
-37 -43 0
-32 -31 0
-4 -35 0
145 -43 0
-45 52 -90 -89 88 0
-2 101 0
-6 -39 0
-42 -28 0
-32 -29 0
-30 -10 0
-26 -10 0
6 -210 0
175 -62 0
-4 -23 0
-103 136 -31 133 132 134 135 0
31 -190 0
-6 20 19 13 16 7 9 21 15 17 14 8 2 12 11 18 -3 0
-27 -23 0
-7 -2 0
-36 -33 0
-28 -23 0
-13 -17 0
34 81 -65 0
-197 -194 0
-131 85 158 0
-16 -2 0
-95 -146 0
-145 146 43 40 0
-32 -10 0
-9 -21 0
-32 96 0
6 -196 0
-4 -28 0
-56 152 0
-134 -135 0
-22 -38 0
6 -196 77 0
-4 -25 0
34 -120 0
-32 -38 0
-24 -33 0
31 -132 0
92 115 -108 48 53 0
-6 -69 67 0
-34 -24 0
-92 94 0
-29 -23 0
-41 -5 0
127 -31 0
47 45 48 53 -89 -186 0
-53 52 -44 46 -89 -88 0
-37 -34 0
-177 -98 0
81 -65 0
-6 20 19 13 16 7 9 21 15 17 14 8 2 12 11 18 -175 0
101 -64 0
6 -13 0
-35 -40 0
104 -106 0
-19 -9 0
150 -84 0
-116 -156 0
-11 -18 0
20 19 12 -82 0
152 -140 0
81 -91 0
-6 20 19 13 16 7 9 21 15 17 14 8 2 12 11 18 -166 0
31 -211 0
-34 -25 0
-36 109 0
-43 -24 0
-23 -25 0
-77 30 81 50 100 62 59 78 33 25 0
-13 10 0
-47 144 0
-43 -10 0
-171 -95 0
141 -125 0
-15 -18 0
-34 -38 0
-30 -36 0
-43 -28 0
-16 86 0
-6 -9 75 0
-33 207 205 0
-92 -150 149 0
-45 -53 0
-37 -23 0
92 -180 55 0
7 -26 62 63 57 60 61 58 0
56 -152 0
-34 120 0
69 -131 158 0
-92 -55 0
-37 -32 0
-53 89 0
-36 -10 0
3 -25 0
-34 -33 0
-34 -42 0
-9 -2 0
6 -33 0
6 -30 0
102 -48 0
-17 145 0
-21 -15 0
-22 -29 0
101 -32 0
-6 20 19 13 16 7 9 21 15 17 14 8 2 12 11 18 -24 0
90 -36 0
-29 -26 0
33 -198 0
-34 -23 0
-92 -89 0
-198 -181 0
-32 -26 0
-207 -205 0
6 -123 0
-69 131 -158 0
7 -117 0
-7 159 0
42 -50 0
161 185 160 0
159 -31 0
-62 -60 0
183 -64 0
-8 -2 0
73 -74 0
-15 159 0
-20 -11 0
-18 24 0
166 -158 0
-177 -91 0
6 -15 0
-136 -132 0
-32 -28 0
-36 -29 0
152 -147 0
163 -45 0
-33 -25 0
-8 -11 0
77 -59 0
69 -131 85 0
92 55 -31 0
212 0
-20 -14 0
-20 -15 0
-31 -5 0
-71 -158 0
-45 -48 0
-28 -38 0
6 7 17 -107 115 0
-5 -25 0
-25 70 193 0
-8 73 0
-187 103 0
159 -43 0
-27 -26 0
-36 -5 0
-41 -25 0
-213 31 0
-15 -14 0
-22 96 0
-7 -17 0
44 -36 0
-32 -41 0
-6 -17 107 -108 0
175 -59 0
-29 -5 0
130 -55 0
-150 149 0
-29 -31 0
-6 -55 0
-29 -40 0
-150 0
-175 0
-46 0
