p cnf 16 43201
-14 -16 0
-14 -13 -16 0
-16 -5 0
-13 -2 -16 -5 0
-13 -16 -5 0
5 14 0
5 14 0
11 5 0
5 14 0
11 5 0
11 0
11 0
5 14 11 0
11 5 0
11 0
5 14 11 0
5 14 11 0
-8 -16 -5 0
-14 -2 -16 0
-2 -16 -5 0
-14 -8 -16 0
-2 -11 -16 -5 0
-2 -16 -5 0
-14 -2 -16 0
-8 -16 -5 0
-2 -16 -5 0
-14 -8 -16 0
-14 -16 0
-13 -2 -16 -5 0
-16 -5 0
-16 -5 0
-14 -16 0
7 0
7 0
7 0
7 0
7 0
7 0
7 0
7 0
7 0
7 0
7 0
7 0
7 0
7 0
7 0
7 0
7 0
-3 4 -10 0
4 -9 -10 0
-4 3 -9 0
3 -9 -10 0
4 10 1 0
4 10 3 1 0
3 9 1 0
4 3 1 9 0
4 3 -1 9 0
3 9 -1 0
4 10 3 -1 0
4 10 -1 0
3 0
4 0
15 0
15 0
1 7 0
-1 7 0
7 0
12 0
12 0
11 0
11 0
11 0
11 0
11 0
11 0
11 0
11 0
11 0
13 0
13 0
13 0
13 0
13 0
13 1 0
13 -1 0
13 0
1 11 0
-1 11 0
11 0
7 0
1 11 0
-1 11 0
11 0
4 10 3 0
3 9 0
4 0
6 0
4 10 0
6 0
3 9 4 0
3 0
4 0
6 0
3 0
15 0
15 0
1 11 0
-1 11 0
11 0
3 0
4 0
13 0
4 0
4 10 3 0
4 3 9 0
3 0
13 0
3 9 0
4 0
13 0
3 0
13 0
4 10 0
3 9 0
4 10 0
13 0
4 3 9 0
3 0
13 0
4 0
4 10 3 0
4 0
13 0
3 0
4 3 9 0
4 0
13 0
4 0
13 0
13 0
3 9 0
3 0
4 10 3 0
3 0
4 10 0
13 0
13 0
13 0
4 0
3 0
3 0
4 10 0
3 9 0
4 10 3 0
4 0
4 3 9 0
4 0
3 0
13 0
1 12 0
-1 12 0
12 0
15 0
15 0
15 0
15 0
15 0
15 0
15 0
15 0
15 0
15 0
1 7 0
-1 7 0
7 0
1 11 0
-1 11 0
11 0
13 1 0
13 -1 0
13 0
1 11 0
-1 11 0
11 0
12 0
12 0
7 1 0
7 -1 0
7 0
15 0
15 0
15 0
15 0
15 0
15 0
15 0
15 0
15 0
15 0
15 0
15 0
15 0
15 0
15 0
15 0
15 0
15 0
15 0
15 0
15 0
15 0
15 0
15 0
15 0
15 1 0
15 -1 0
15 0
4 0
3 9 4 0
6 0
3 0
4 10 0
3 9 0
4 10 3 0
6 0
11 0
12 0
11 0
11 0
12 0
12 0
12 0
12 0
11 0
11 0
11 0
11 0
12 0
12 0
12 0
12 0
11 0
11 0
12 0
11 0
13 0
13 0
13 0
13 0
13 -1 0
13 0
13 0
13 0
12 0
12 0
12 0
12 0
12 0
12 0
12 0
12 0
12 0
7 0
7 0
7 0
7 0
7 0
7 0
7 0
7 0
7 0
12 0
12 0
7 0
7 0
7 0
7 0
7 0
7 0
7 0
7 0
7 1 0
7 -1 0
7 0
13 1 0
13 -1 0
13 0
15 0
15 0
12 0
12 7 0
12 7 0
12 7 0
12 0
12 7 0
12 0
12 0
7 0
7 0
12 0
12 0
7 0
7 0
12 0
12 0
7 0
7 0
7 0
12 0
12 7 0
12 7 0
12 7 0
7 0
12 0
7 0
7 0
7 0
12 0
12 0
12 0
12 0
7 0
7 0
7 0
12 7 0
12 0
12 0
12 0
7 0
12 7 0
12 7 0
12 7 0
7 0
7 0
12 7 0
7 0
12 7 0
12 7 0
7 0
7 0
12 0
12 0
12 0
12 0
7 0
12 0
7 0
7 0
12 0
12 0
12 0
7 0
12 0
7 0
12 0
7 0
7 0
12 0
7 0
12 0
7 0
12 7 0
12 7 0
12 0
12 0
7 0
12 7 0
7 0
7 0
7 0
7 0
12 0
12 7 0
12 0
7 0
12 7 0
12 0
12 7 0
7 0
7 0
7 0
12 0
12 0
12 0
12 0
12 0
12 7 0
7 0
7 0
7 0
12 0
12 0
7 0
12 0
12 0
12 0
7 0
12 0
12 0
12 0
7 0
7 0
7 0
12 0
12 0
12 0
12 0
12 0
12 0
4 -9 -10 0
-4 3 -9 0
3 -9 -10 0
-3 4 -10 0
3 9 1 0
4 10 3 1 0
4 3 1 9 0
4 10 1 0
4 10 3 -1 0
4 10 -1 0
3 9 -1 0
4 3 -1 9 0
3 0
4 0
7 0
7 0
7 0
7 0
7 0
7 0
7 0
7 0
7 0
7 0
7 0
7 0
7 0
7 0
7 0
7 0
7 0
7 0
7 0
7 0
7 0
7 0
7 0
7 0
7 0
7 0
7 0
7 0
7 0
7 0
7 0
7 0
15 0
15 0
15 0
15 0
15 0
15 0
15 0
15 0
15 0
15 0
1 11 0
-1 11 0
11 0
15 1 0
15 -1 0
15 0
15 0
15 0
15 0
15 0
7 1 0
7 -1 0
7 0
-8 0
2 0
12 0
-8 0
2 0
12 0
15 0
15 0
1 7 0
-1 7 0
7 0
-14 -8 -16 0
-14 -2 -16 0
-8 -16 -5 0
-2 -11 -16 -5 0
-2 -16 -5 0
-2 -16 -5 0
-2 -16 -5 0
-8 -16 -5 0
-14 -8 -16 0
-14 -2 -16 0
13 1 0
13 -1 0
13 0
15 0
15 0
15 0
15 0
12 0
12 0
7 0
12 0
12 0
12 0
12 0
7 0
12 0
7 0
15 0
15 0
11 0
15 1 0
1 15 0
15 -1 0
-1 15 0
15 0
15 0
1 12 0
-1 12 0
12 0
3 0
6 0
4 0
3 9 4 0
4 10 3 6 0
4 3 6 9 0
3 9 6 0
3 9 0
4 10 0
6 3 0
6 0
3 0
6 4 0
4 0
6 0
4 10 3 0
4 10 6 0
4 3 6 9 0
6 0
4 10 3 6 0
4 10 6 0
6 4 0
4 10 0
3 0
4 0
3 9 4 0
6 0
6 3 0
4 10 3 0
3 9 6 0
3 9 0
4 10 6 0
4 10 3 6 0
6 0
4 10 3 0
6 3 0
4 10 0
3 0
3 9 4 0
4 3 6 9 0
3 9 0
4 0
6 4 0
6 0
3 9 6 0
3 9 4 0
3 0
6 4 0
4 10 3 6 0
6 0
4 10 6 0
6 0
4 10 3 0
3 9 0
6 3 0
4 0
3 9 6 0
4 10 0
4 3 6 9 0
15 0
15 0
1 11 0
-1 11 0
11 0
15 1 0
15 -1 0
15 0
3 0
6 0
4 0
6 3 0
3 9 4 0
4 10 6 0
6 4 0
6 0
4 10 3 0
3 0
3 9 6 0
3 9 0
4 3 6 9 0
4 0
4 10 3 6 0
4 10 0
6 0
3 0
3 9 4 0
4 3 6 9 0
3 9 6 0
6 0
6 4 0
4 10 6 0
6 0
4 10 3 0
6 3 0
4 0
3 9 0
4 10 0
4 10 3 6 0
3 9 6 0
3 0
3 9 0
6 4 0
4 10 3 0
6 3 0
4 10 3 6 0
6 0
4 10 0
4 3 6 9 0
4 0
6 0
4 10 6 0
3 9 4 0
4 10 0
4 10 3 0
3 0
4 3 6 9 0
6 3 0
4 10 6 0
6 4 0
3 9 4 0
3 9 0
4 0
4 10 3 6 0
6 0
3 9 6 0
6 0
3 0
4 0
6 0
6 0
3 9 0
3 0
4 10 6 0
6 0
4 0
4 10 0
3 9 6 0
4 10 3 0
4 10 3 6 0
6 4 0
4 3 6 9 0
6 3 0
3 9 4 0
6 3 0
3 9 6 0
4 10 6 0
4 10 3 0
3 0
6 0
4 3 6 9 0
3 9 4 0
3 9 0
4 10 3 6 0
6 4 0
4 0
4 10 0
6 0
4 0
4 10 6 0
6 3 0
6 0
6 0
3 9 6 0
3 0
4 3 6 9 0
4 10 0
3 9 4 0
6 4 0
4 10 3 0
3 9 0
4 10 3 6 0
6 3 0
6 0
6 0
4 10 0
4 0
6 4 0
4 10 3 6 0
3 9 6 0
4 10 3 0
4 10 6 0
3 9 0
3 0
3 9 4 0
4 3 6 9 0
6 0
4 0
3 0
11 1 0
11 -1 0
11 0
1 12 0
-1 12 0
12 0
-4 3 -9 0
3 -9 -10 0
4 -9 -10 0
-3 4 -10 0
4 3 1 9 0
4 10 1 0
3 9 1 0
4 10 3 1 0
3 9 -1 0
4 10 -1 0
4 10 3 -1 0
4 3 -1 9 0
3 0
4 0
13 1 0
13 -1 0
13 0
12 0
1 12 0
-1 12 0
12 0
1 11 0
-1 11 0
11 0
1 11 0
-1 11 0
11 0
7 1 0
7 -1 0
7 0
15 0
15 0
15 0
15 0
7 0
13 0
12 0
11 0
11 0
12 0
12 0
11 0
11 0
11 0
15 0
12 0
11 0
11 0
11 0
15 0
11 0
7 0
11 0
11 0
11 0
12 0
12 0
11 0
15 0
7 0
7 0
11 0
11 0
11 0
12 0
11 0
11 0
12 0
15 0
11 0
15 0
11 0
11 0
11 0
15 0
13 0
11 0
11 0
15 0
15 0
11 0
11 0
12 0
11 0
15 0
7 0
11 0
13 0
11 0
12 0
11 0
15 0
15 0
11 0
11 0
12 0
15 0
11 0
11 0
11 0
13 0
11 0
15 0
11 0
7 0
15 0
12 0
11 0
11 0
11 0
12 0
11 0
7 0
12 0
11 0
15 0
11 0
11 0
11 0
15 0
12 0
7 0
12 0
11 0
13 0
11 0
11 0
15 0
15 0
12 0
11 0
12 0
11 0
15 0
15 0
6 0
4 0
4 10 3 0
3 9 0
3 9 4 0
4 10 0
3 0
6 0
15 0
15 0
2 -8 0
-8 0
2 0
2 -8 -1 0
1 15 0
-1 15 0
15 0
7 11 0
7 11 0
7 11 0
7 11 0
7 11 0
7 11 0
7 11 0
7 11 0
7 11 0
7 11 0
4 10 0
6 0
3 9 4 0
3 0
3 9 0
4 0
6 0
4 10 3 0
7 0
12 0
12 0
7 0
7 0
12 0
12 0
7 0
11 0
3 0
6 0
4 0
11 0
4 3 6 9 0
3 9 4 0
4 0
6 3 0
6 0
4 10 3 6 0
4 10 0
6 0
3 9 6 0
3 0
6 4 0
11 0
4 10 6 0
4 10 3 0
3 9 0
3 9 4 0
3 9 6 0
6 4 0
3 0
6 3 0
11 0
4 3 6 9 0
3 9 0
4 10 3 6 0
11 0
4 10 6 0
4 0
6 0
6 0
4 10 3 0
4 10 0
4 10 6 0
6 0
11 0
3 9 0
4 10 3 6 0
4 0
3 9 4 0
3 9 6 0
11 0
4 10 3 0
4 3 6 9 0
3 0
6 3 0
6 0
6 4 0
4 10 0
4 10 6 0
11 0
4 10 3 6 0
6 0
4 3 6 9 0
4 10 0
4 0
6 4 0
3 9 0
3 9 6 0
4 10 3 0
6 0
11 0
3 0
6 3 0
3 9 4 0
4 0
3 0
11 0
6 0
12 1 0
11 12 1 0
11 1 0
11 12 -1 0
11 -1 0
12 -1 0
11 0
12 0
12 0
12 0
12 0
12 0
12 0
12 0
12 0
12 0
1 11 0
-1 11 0
11 0
4 0
3 0
6 0
4 0
6 0
4 10 3 0
6 0
3 9 0
6 4 0
3 9 4 0
3 0
3 9 6 0
4 10 0
6 3 0
4 3 6 9 0
4 10 6 0
4 10 3 6 0
6 0
4 0
4 10 0
3 9 0
4 10 6 0
3 9 4 0
3 9 6 0
6 0
4 10 3 0
6 4 0
3 0
4 3 6 9 0
4 10 3 6 0
6 3 0
3 9 6 0
4 10 0
4 10 3 0
4 3 6 9 0
6 0
6 0
3 9 0
4 0
6 4 0
3 0
3 9 4 0
4 10 3 6 0
6 3 0
4 10 6 0
6 4 0
6 3 0
4 10 0
3 9 0
6 0
3 0
4 3 6 9 0
6 0
4 10 6 0
3 9 4 0
4 10 3 0
3 9 6 0
4 10 3 6 0
4 0
6 0
4 0
3 0
1 15 0
-1 15 0
15 0
1 12 0
-1 12 0
12 0
3 9 0
3 0
4 10 3 0
6 0
4 0
4 10 0
3 9 4 0
6 0
6 0
3 0
4 0
3 -9 -10 0
-3 4 -10 0
-4 3 -9 0
4 -9 -10 0
4 10 1 0
3 9 1 0
4 10 3 1 0
4 3 1 9 0
3 9 -1 0
4 10 -1 0
4 10 3 -1 0
4 3 -1 9 0
3 0
4 0
7 1 0
12 1 0
12 7 1 0
12 -1 0
12 7 -1 0
7 -1 0
7 0
12 0
7 0
7 0
7 0
7 0
7 0
7 0
7 0
7 0
7 0
7 0
7 0
7 0
7 0
7 0
7 0
7 0
7 0
7 0
7 0
7 0
7 0
7 0
7 0
7 0
7 0
7 0
7 0
7 0
7 0
7 0
7 0
7 0
12 1 0
12 7 1 0
7 1 0
12 -1 0
12 7 -1 0
7 -1 0
7 0
12 0
5 14 0
5 14 0
7 0
7 0
7 0
7 0
7 0
7 0
7 0
7 0
7 0
4 0
3 0
4 0
4 10 0
3 0
3 9 4 0
4 10 3 0
3 9 0
3 -1 0
4 -1 0
3 0
4 0
2 8 0
15 1 0
15 -1 0
15 0
11 0
11 0
11 0
11 0
11 0
11 0
11 0
11 0
11 0
11 0
7 1 0
7 -1 0
7 0
15 1 0
15 -1 0
15 0
12 0
12 0
13 0
5 0
13 0
5 14 0
5 13 0
5 0
13 0
5 13 14 0
5 0
13 0
5 0
13 0
5 13 14 0
5 14 0
13 0
5 0
13 0
5 13 0
5 14 0
13 0
13 0
5 13 0
13 0
5 13 14 0
5 0
5 0
13 0
5 13 14 0
5 0
5 0
13 0
5 13 0
5 14 0
13 0
13 0
5 0
7 0
7 0
15 0
15 0
15 1 0
15 -1 0
15 0
15 0
15 0
15 1 0
15 -1 0
15 0
7 0
7 0
7 0
7 0
7 0
7 0
7 0
7 0
15 0
15 0
-4 3 -9 0
4 -9 -10 0
-3 4 -10 0
3 -9 -10 0
4 10 0
4 0
3 9 4 0
3 9 0
4 10 3 0
3 0
4 0
4 10 0
4 10 3 0
3 9 0
3 0
3 9 4 0
3 9 0
3 0
4 0
4 10 0
3 9 4 0
4 10 3 0
4 10 3 0
3 9 0
4 0
3 9 4 0
3 0
4 10 0
3 0
4 0
7 0
7 0
7 0
7 0
7 0
7 0
7 0
7 0
7 0
15 0
15 0
-4 3 -9 0
3 -9 -10 0
-3 4 -10 0
4 -9 -10 0
4 10 1 0
3 9 1 0
4 10 3 1 0
4 3 1 9 0
4 10 3 -1 0
4 3 -1 9 0
3 9 -1 0
4 10 -1 0
3 0
4 0
1 12 0
1 7 0
-1 12 0
-1 7 0
12 0
7 0
12 1 0
12 -1 0
12 0
15 0
15 0
15 0
5 0
13 0
13 0
13 0
5 14 0
5 13 14 0
5 0
5 0
13 0
5 13 0
5 13 14 0
13 0
5 0
5 0
13 0
5 14 0
13 0
5 13 0
5 14 0
5 0
13 0
13 0
5 13 14 0
5 0
13 0
5 13 0
13 0
5 0
5 13 14 0
5 13 0
13 0
5 14 0
5 0
13 0
13 0
5 0
-14 -16 0
-16 -5 0
15 0
15 0
4 -9 -10 0
3 -9 -10 0
-4 3 -9 0
-3 4 -10 0
4 10 1 0
4 3 1 9 0
4 10 3 1 0
3 9 1 0
3 9 -1 0
4 10 3 -1 0
4 10 -1 0
4 3 -1 9 0
3 0
4 0
15 0
15 0
15 0
7 0
7 0
7 0
7 0
7 0
7 0
7 0
7 0
7 0
7 1 0
7 -1 0
7 0
15 1 0
15 -1 0
15 0
11 0
12 0
12 0
5 0
13 0
13 0
5 0
5 13 14 0
5 13 0
13 0
5 14 0
5 0
13 0
13 0
13 0
5 0
5 13 0
5 0
5 14 0
5 13 14 0
13 0
13 0
5 0
13 0
5 13 14 0
5 14 0
13 0
5 13 0
5 0
13 0
5 0
5 0
5 14 0
13 0
5 13 14 0
13 0
5 13 0
5 0
13 0
15 1 0
15 -1 0
15 0
7 0
13 1 0
13 -1 0
13 0
1 7 0
-1 7 0
7 0
1 15 0
-1 15 0
15 0
15 0
15 0
3 -9 -10 0
-4 3 -9 0
-3 4 -10 0
4 -9 -10 0
4 10 1 0
4 10 3 1 0
4 3 1 9 0
3 9 1 0
4 10 -1 0
4 10 3 -1 0
3 9 -1 0
4 3 -1 9 0
3 0
4 0
1 11 0
-1 11 0
11 0
11 0
11 0
11 0
11 0
11 0
11 0
11 0
11 0
11 0
15 0
15 0
1 7 0
-1 7 0
7 0
1 7 0
-1 7 0
7 0
13 0
13 0
13 0
13 0
13 0
13 0
13 1 0
13 -1 0
13 0
3 0
4 10 0
4 3 9 0
4 10 0
4 0
4 0
4 10 3 0
4 10 0
3 0
4 10 3 0
3 9 0
3 9 0
4 10 3 0
3 9 0
4 3 9 0
3 9 0
3 9 0
4 10 0
4 10 3 0
4 3 9 0
4 3 9 0
3 9 0
3 0
4 10 3 0
4 3 9 0
4 0
3 0
4 0
4 0
4 10 3 0
3 9 0
3 9 0
3 0
4 3 9 0
4 0
4 10 3 0
4 10 0
3 0
3 0
4 10 0
3 0
4 3 9 0
3 9 0
4 3 9 0
4 0
4 0
4 0
4 10 0
4 10 3 0
4 10 3 0
4 10 0
3 0
4 3 9 0
4 10 0
4 0
4 10 0
4 0
4 3 9 0
3 9 0
4 3 9 0
4 3 9 0
4 10 3 0
3 9 0
4 10 3 0
3 0
4 10 0
3 0
4 3 9 0
4 3 9 0
3 9 0
4 0
4 0
3 0
3 9 0
4 10 3 0
4 0
4 10 0
4 0
4 3 9 0
4 10 0
3 9 0
4 10 3 0
4 10 0
3 0
4 0
4 10 3 0
3 0
4 10 0
3 9 0
3 0
4 10 0
4 0
4 10 0
3 9 0
4 10 3 0
4 3 9 0
4 3 9 0
3 0
3 0
3 0
4 10 3 0
4 3 9 0
3 9 0
4 10 0
4 10 3 0
4 10 3 0
3 9 0
4 0
3 0
3 0
3 0
4 0
4 0
3 0
4 0
3 0
4 0
3 0
3 0
3 0
4 0
3 0
4 0
4 0
4 0
4 0
3 0
4 10 3 0
3 9 0
4 10 0
3 9 0
3 9 0
4 10 0
4 10 0
3 0
4 10 3 0
4 3 9 0
4 10 0
4 3 9 0
3 0
4 10 3 0
4 3 9 0
3 9 0
3 9 0
4 3 9 0
4 0
3 0
4 3 9 0
4 3 9 0
3 9 0
3 0
4 10 0
3 9 0
4 10 0
4 10 3 0
4 0
3 0
3 9 0
4 10 0
4 3 9 0
4 0
4 10 3 0
4 10 0
4 0
3 0
4 10 3 0
3 9 0
3 0
4 0
4 10 0
4 10 0
4 3 9 0
4 0
4 0
4 3 9 0
4 0
3 0
4 10 3 0
4 10 3 0
4 0
3 9 4 0
4 0
4 10 3 0
4 10 3 0
3 9 0
3 0
3 0
3 0
3 0
4 0
4 0
3 0
4 0
3 0
4 0
4 0
3 0
3 0
4 0
4 0
4 0
3 0
4 0
3 0
4 0
3 0
15 1 0
15 -1 0
15 0
7 0
12 7 0
12 0
7 0
12 7 0
12 0
13 1 0
13 -1 0
13 0
7 1 0
7 -1 0
7 0
13 1 0
13 -1 0
13 0
7 0
7 0
7 0
7 0
7 0
7 0
7 0
7 0
7 0
7 0
7 0
3 9 4 0
4 10 3 0
4 10 0
3 9 0
3 9 4 0
4 10 3 0
4 10 0
3 9 0
4 0
6 0
4 10 0
3 0
6 0
3 9 0
3 9 4 0
4 10 3 0
3 0
6 0
4 0
11 0
11 0
11 0
11 0
11 0
11 0
11 0
11 0
11 0
11 0
11 0
11 0
12 0
12 0
11 12 1 0
12 1 0
11 1 0
12 -1 0
11 -1 0
11 12 -1 0
11 0
12 0
13 1 0
13 -1 0
13 0
15 0
15 0
1 11 0
-1 11 0
11 0
13 0
13 0
13 0
13 0
13 0
13 0
13 0
13 0
13 0
12 0
12 0
12 0
12 0
12 0
12 0
12 0
12 0
12 0
1 11 0
-1 11 0
11 0
7 0
7 0
7 0
7 0
7 0
7 0
7 0
7 0
7 0
7 0
7 0
7 0
7 0
7 0
7 0
15 0
15 0
15 0
15 0
15 0
15 0
15 0
15 0
15 0
15 0
15 0
15 0
12 7 1 0
7 1 0
12 1 0
7 -1 0
12 -1 0
12 7 -1 0
7 0
12 0
4 0
3 9 0
3 0
6 0
4 10 0
4 10 3 0
6 0
3 9 4 0
6 0
4 0
3 0
15 0
15 0
4 10 0
6 0
4 10 3 0
3 9 4 0
3 0
4 0
6 0
3 9 0
4 0
6 0
3 0
-8 -16 -5 0
-14 -8 -16 0
-14 -2 -16 0
-2 -16 -5 0
-2 -16 -5 0
-2 -11 -16 -5 0
-8 -16 -5 0
-2 -16 -5 0
-14 -2 -16 0
-14 -8 -16 0
13 0
13 0
13 0
13 0
13 0
13 0
13 0
13 0
13 0
13 0
6 0
4 0
3 0
4 10 3 6 1 0
6 1 0
4 3 6 1 9 0
3 6 1 9 0
4 3 1 9 0
4 6 1 0
3 6 1 0
4 10 1 0
4 10 3 1 0
4 10 6 1 0
3 9 1 0
4 3 -1 9 0
3 6 -1 9 0
4 10 -1 0
6 -1 0
4 10 3 -1 0
3 6 -1 0
4 10 6 -1 0
3 9 -1 0
4 3 6 -1 9 0
4 6 -1 0
4 10 3 6 -1 0
3 0
4 0
6 0
13 0
13 0
13 0
13 0
13 0
13 0
13 0
13 0
13 0
13 0
13 0
13 0
13 0
13 0
13 0
13 0
13 0
13 0
13 0
13 0
13 0
13 0
13 0
13 0
1 7 0
-1 7 0
7 0
12 0
12 0
11 0
11 0
11 0
11 0
11 0
11 0
11 0
11 0
11 0
15 0
15 0
12 0
15 1 0
15 -1 0
15 0
3 -9 -10 0
-4 3 -9 0
-3 4 -10 0
4 -9 -10 0
4 10 3 1 0
4 10 1 0
4 3 1 9 0
3 9 1 0
4 3 -1 9 0
3 9 -1 0
4 10 3 -1 0
4 10 -1 0
3 0
4 0
11 1 0
11 12 1 0
12 1 0
12 -1 0
11 -1 0
11 12 -1 0
12 0
11 0
1 15 0
-1 15 0
15 0
11 0
11 1 0
11 -1 0
11 0
6 0
3 0
4 10 0
6 0
4 0
4 10 3 0
3 9 4 0
3 9 0
4 0
6 0
3 0
7 1 0
7 -1 0
7 0
-13 -16 -5 0
-14 -13 -16 0
12 0
3 0
4 10 3 0
4 10 3 0
4 10 3 6 0
2 -8 0
3 6 9 0
4 10 6 0
4 10 0
3 9 0
4 10 0
3 9 0
4 0
3 6 9 0
4 10 0
6 0
4 3 9 0
12 0
4 3 6 9 0
4 0
6 0
6 0
4 3 9 0
4 6 0
3 9 4 0
2 -8 0
12 0
3 6 0
12 0
4 10 6 0
3 6 0
6 0
12 0
4 3 6 9 0
12 0
12 0
4 10 3 0
12 0
6 0
4 6 0
4 10 3 6 0
12 0
3 9 0
3 0
3 6 9 0
4 0
4 10 0
12 0
3 9 0
3 6 0
3 9 4 0
6 0
4 6 0
3 9 0
12 0
4 10 6 0
4 3 9 0
4 10 6 0
4 10 3 0
12 0
3 0
12 0
2 -8 0
6 0
4 10 3 0
6 0
4 3 6 9 0
12 0
6 0
4 0
6 0
4 10 3 6 0
4 10 3 6 0
3 6 9 0
4 10 0
12 0
3 6 0
4 6 0
3 0
4 10 0
4 10 3 0
12 0
4 3 6 9 0
3 9 0
12 0
4 3 9 0
12 0
2 -8 0
2 -8 0
4 0
2 -8 0
12 0
12 0
4 0
12 0
12 0
3 0
4 0
12 0
6 0
3 0
12 0
12 0
12 0
3 0
6 0
6 0
12 0
4 10 0
4 3 9 0
3 6 9 0
4 10 3 6 0
3 9 0
4 10 3 0
4 10 3 0
12 0
6 0
3 6 0
6 0
6 0
4 10 3 6 0
3 0
12 0
6 0
3 6 9 0
3 0
4 6 0
4 3 9 0
4 10 6 0
12 0
3 9 4 0
12 0
2 -8 0
3 9 0
4 3 6 9 0
2 -8 0
4 10 0
4 6 0
3 9 0
12 0
3 6 0
6 0
4 10 3 0
4 3 6 9 0
4 10 6 0
12 0
12 0
4 0
4 0
12 0
4 10 0
3 0
6 0
3 0
4 0
12 0
12 0
12 0
2 -8 0
12 0
2 -8 0
6 0
3 0
6 0
12 0
4 0
4 0
12 0
12 0
12 0
15 0
12 0
15 0
12 0
15 0
12 0
15 0
12 0
15 0
12 0
12 0
15 0
12 0
12 0
15 0
15 0
15 0
12 0
6 0
4 0
11 0
3 0
4 3 6 9 0
3 9 6 0
3 9 0
4 10 3 0
11 0
4 10 0
3 0
6 3 0
4 10 3 6 0
6 0
4 0
4 10 6 0
11 0
6 0
6 4 0
3 9 4 0
3 9 0
4 10 6 0
6 3 0
6 0
4 0
3 0
4 10 0
3 9 4 0
11 0
4 10 3 0
4 3 6 9 0
11 0
6 4 0
3 9 6 0
6 0
4 10 3 6 0
6 0
4 10 6 0
6 0
4 10 0
6 3 0
3 9 4 0
11 0
3 0
3 9 6 0
4 3 6 9 0
6 4 0
4 10 3 0
3 9 0
11 0
4 10 3 6 0
4 0
11 0
3 9 6 0
6 0
6 3 0
3 9 0
3 0
4 10 0
11 0
4 0
4 10 6 0
4 3 6 9 0
6 4 0
4 10 3 0
3 9 4 0
4 10 3 6 0
6 0
12 1 0
12 -1 0
12 0
3 9 0
4 10 0
13 0
3 0
4 10 3 0
3 9 4 0
13 0
4 0
4 10 3 0
4 10 0
3 9 13 0
13 3 0
3 9 4 0
4 13 3 9 0
13 4 0
13 0
4 13 10 3 0
4 10 13 0
3 9 0
4 10 3 0
4 10 0
3 9 13 0
13 3 0
3 9 4 0
4 13 3 9 0
13 4 0
13 0
4 13 10 3 0
4 10 13 0
3 9 0
15 13 0
13 0
13 0
15 0
13 15 0
15 0
15 0
13 0
13 15 0
15 0
13 0
15 13 0
15 0
13 0
15 0
13 15 0
15 13 0
13 0
15 0
13 0
15 13 0
13 15 0
15 0
13 0
13 0
15 0
15 0
15 0
15 1 0
15 -1 0
15 0
7 0
7 0
12 0
7 0
7 0
7 0
7 0
7 0
7 0
7 0
7 0
7 0
15 0
7 0
7 0
7 0
7 0
7 0
7 0
7 0
7 0
7 0
11 1 0
11 -1 0
11 0
12 0
12 0
12 0
12 0
15 0
15 0
13 1 0
13 -1 0
13 0
13 1 0
13 -1 0
13 0
1 11 0
-1 11 0
11 0
15 1 0
15 -1 0
15 0
15 1 0
15 -1 0
15 0
15 1 0
15 -1 0
15 0
3 0
4 0
4 10 3 0
4 10 0
3 9 0
3 9 4 0
3 0
4 0
4 0
4 10 0
4 10 3 0
3 0
3 9 4 0
3 9 0
3 9 0
4 0
3 9 4 0
4 10 0
3 0
4 10 3 0
3 9 0
3 0
4 10 0
4 10 3 0
3 9 4 0
4 0
3 0
4 0
7 0
7 0
7 0
7 0
7 0
7 0
7 0
7 0
7 0
-4 3 -9 0
4 -9 -10 0
3 -9 -10 0
-3 4 -10 0
4 10 1 0
4 3 1 9 0
3 9 1 0
4 10 3 1 0
4 10 -1 0
4 10 3 -1 0
4 3 -1 9 0
3 9 -1 0
3 0
4 0
1 12 0
1 11 0
-1 12 0
-1 11 0
12 0
11 0
13 1 0
13 -1 0
13 0
11 0
11 0
11 0
11 0
11 0
11 0
11 0
11 0
11 0
11 0
11 0
1 12 0
-1 12 0
12 0
13 0
15 13 0
15 0
15 0
13 0
13 15 0
13 0
15 0
15 0
13 15 0
15 13 0
15 0
13 0
15 13 0
13 0
13 15 0
13 0
15 0
13 15 0
13 0
15 13 0
15 0
15 13 0
15 0
13 15 0
13 0
15 0
13 0
15 0
13 15 0
15 13 0
13 0
13 0
15 0
13 0
15 13 0
15 0
13 0
12 0
12 0
12 0
12 0
11 0
11 0
4 0
3 9 4 0
3 0
4 10 0
6 0
6 0
4 10 3 0
3 9 0
4 0
6 0
3 0
7 0
7 0
7 0
7 0
7 0
7 0
7 0
7 0
12 7 1 0
12 1 0
7 1 0
12 7 -1 0
7 -1 0
12 -1 0
7 0
12 0
15 0
15 0
15 0
15 0
15 0
15 0
15 0
15 0
15 0
15 0
15 0
15 0
15 0
15 0
12 1 0
12 -1 0
12 0
1 7 0
-1 7 0
7 0
4 0
11 0
6 0
3 0
11 0
3 0
3 9 6 0
6 0
4 10 0
11 0
6 4 0
3 9 4 0
4 10 3 6 0
4 10 3 0
6 0
4 3 6 9 0
6 3 0
4 0
3 9 0
4 10 6 0
4 10 3 0
4 10 6 0
6 0
11 0
3 9 4 0
4 10 3 6 0
3 9 0
3 0
3 9 6 0
4 3 6 9 0
6 0
6 3 0
4 0
6 4 0
11 0
4 10 0
4 10 6 0
4 10 3 0
4 10 0
6 0
4 0
6 0
6 4 0
3 9 6 0
3 0
4 10 3 6 0
3 9 0
11 0
11 0
6 3 0
4 3 6 9 0
3 9 4 0
3 9 0
4 10 6 0
4 0
4 10 3 0
3 0
11 0
11 0
4 3 6 9 0
3 9 4 0
4 10 3 6 0
6 0
6 3 0
6 4 0
3 9 6 0
4 10 0
6 0
3 0
4 0
6 0
11 0
12 1 0
12 -1 0
12 0
7 0
7 0
7 0
7 0
7 0
7 0
7 0
7 0
7 0
1 7 0
-1 7 0
7 0
15 0
15 0
15 0
15 0
1 15 0
-1 15 0
15 0
1 7 0
-1 7 0
7 0
12 0
15 0
11 0
11 0
15 0
11 0
11 0
11 0
11 0
12 0
11 0
11 0
15 0
11 0
12 0
11 0
15 0
12 0
11 0
11 0
15 0
15 0
11 0
12 0
11 0
11 0
11 0
11 0
15 0
12 0
12 0
15 0
11 0
11 0
11 0
11 0
12 0
11 0
15 0
15 0
11 0
11 0
7 0
7 0
7 0
7 0
7 0
7 0
7 0
7 0
7 0
15 0
15 0
12 0
12 0
12 0
15 0
12 0
15 0
12 0
15 0
15 0
12 0
12 0
15 0
15 0
12 0
15 0
12 0
1 7 0
-1 7 0
7 0
13 0
13 0
11 0
13 1 0
13 -1 0
13 0
15 1 0
15 -1 0
15 0
15 0
15 0
15 0
15 0
15 0
15 0
15 0
15 0
15 0
15 0
15 0
15 0
15 0
15 0
15 0
15 0
15 0
13 0
13 0
15 1 0
15 -1 0
15 0
15 1 0
15 -1 0
15 0
15 1 0
15 -1 0
15 0
7 0
7 0
7 0
7 0
7 0
7 0
7 0
7 0
7 0
15 0
15 0
7 0
7 0
4 10 0
3 0
3 9 0
4 0
3 9 0
4 10 3 0
3 0
6 0
3 9 4 0
6 0
4 10 0
4 0
3 0
4 0
6 0
13 1 0
13 -1 0
13 0
12 0
11 0
11 12 0
11 0
11 0
12 0
12 0
12 0
11 12 0
11 0
11 0
12 0
11 12 0
11 0
12 0
11 0
12 0
12 0
11 0
11 12 0
12 0
11 0
11 0
12 0
12 0
12 0
12 0
12 0
12 0
12 0
12 0
12 0
12 0
12 0
4 0
4 10 3 0
3 9 4 0
6 0
3 0
3 9 0
6 0
4 10 0
6 0
3 0
4 0
15 0
15 0
-8 -16 -5 0
-14 -2 -16 0
-14 -8 -16 0
-2 -16 -5 0
15 0
15 0
15 0
15 0
7 0
7 0
7 0
7 0
13 1 0
13 -1 0
13 0
15 0
15 0
11 0
4 0
3 0
6 0
6 0
4 10 3 6 0
11 0
3 9 6 0
6 3 0
3 9 0
3 9 4 0
4 10 6 0
3 0
4 3 6 9 0
11 0
6 4 0
6 0
4 0
4 10 0
4 10 3 0
6 0
3 9 0
11 0
4 10 3 0
4 10 3 6 0
3 9 6 0
3 0
6 0
11 0
6 4 0
4 3 6 9 0
3 9 4 0
4 10 0
6 3 0
4 10 6 0
4 0
4 3 6 9 0
6 0
3 9 0
6 3 0
3 9 6 0
3 0
11 0
11 0
3 9 4 0
4 10 3 0
6 4 0
4 0
4 10 3 6 0
4 10 6 0
6 0
4 10 0
4 0
3 9 6 0
4 10 6 0
6 3 0
6 0
4 3 6 9 0
4 10 0
4 10 3 0
4 10 3 6 0
6 0
6 4 0
11 0
3 0
3 9 4 0
3 9 0
11 0
1 7 0
-1 7 0
7 0
-4 3 -9 0
4 -9 -10 0
3 -9 -10 0
-3 4 -10 0
3 9 1 0
4 10 3 1 0
4 3 1 9 0
4 10 1 0
3 9 -1 0
4 10 -1 0
4 10 3 -1 0
4 3 -1 9 0
3 0
4 0
15 0
15 0
15 0
15 0
15 0
15 0
15 0
15 0
12 0
11 0
12 0
11 0
13 0
13 0
13 0
13 0
1 11 0
-1 11 0
11 0
4 0
4 10 3 0
4 10 0
6 0
4 3 9 0
3 6 0
3 9 0
3 0
4 10 3 6 0
3 6 9 0
6 0
4 6 0
4 10 6 0
4 3 6 9 0
4 0
4 10 6 0
4 6 0
4 3 9 0
3 6 9 0
4 10 0
4 10 3 6 0
3 0
4 10 3 0
4 3 6 9 0
3 9 0
6 0
6 0
3 6 0
3 0
6 0
4 0
4 10 3 0
4 0
6 0
3 0
4 10 0
3 0
6 0
4 10 3 6 0
3 9 0
4 10 6 0
3 6 9 0
4 3 9 0
4 10 3 0
3 6 0
4 10 0
4 3 6 9 0
3 9 4 0
4 6 0
6 0
4 0
3 9 0
6 0
3 0
6 0
4 0
4 0
6 0
3 0
13 1 0
13 -1 0
13 0
12 1 0
12 -1 0
12 0
15 0
15 0
15 0
15 0
15 -1 0
15 -1 0
15 0
15 0
15 0
1 12 0
-1 12 0
12 0
4 0
6 0
3 0
3 6 9 0
4 10 0
6 0
3 9 0
4 6 0
6 0
4 3 6 9 0
3 6 0
4 10 3 6 0
4 10 6 0
6 0
4 0
4 0
3 0
4 10 3 0
4 3 9 0
3 0
4 10 3 6 0
4 0
4 3 9 0
4 6 0
6 0
6 0
4 10 0
4 0
4 10 6 0
3 0
3 0
3 6 0
4 3 6 9 0
6 0
3 6 9 0
3 9 0
4 10 3 0
6 0
3 6 9 0
6 0
4 3 6 9 0
4 6 0
6 0
4 0
3 9 0
4 10 0
4 10 6 0
3 6 0
4 10 3 0
3 0
3 0
4 0
4 3 9 0
4 10 3 6 0
3 9 0
3 6 0
6 0
4 6 0
6 0
4 10 0
4 3 6 9 0
4 3 9 0
6 0
4 10 6 0
4 10 3 6 0
3 6 9 0
4 0
3 0
3 0
4 10 3 0
4 0
3 9 0
3 0
3 0
3 9 0
3 0
3 9 0
3 0
3 0
1 11 0
-1 11 0
11 0
5 0
13 0
5 0
5 0
5 13 0
5 14 0
5 13 14 0
13 0
13 0
13 0
5 14 0
13 0
13 0
5 13 14 0
5 13 0
5 0
5 0
13 0
5 13 14 0
5 13 0
13 0
13 0
5 0
5 14 0
5 0
13 0
5 0
13 0
5 0
13 0
5 13 14 0
5 13 0
13 0
5 14 0
5 0
13 0
11 1 0
11 -1 0
11 0
15 1 0
15 -1 0
15 0
15 0
15 0
4 0
2 0
3 0
6 0
6 0
4 0
3 0
2 0
-1 0
4 0
2 0
3 0
6 0
2 8 12 0
12 0
2 8 0
12 2 0
7 12 -1 0
2 -1 0
7 2 -1 0
12 2 -1 0
12 -1 0
7 0
2 0
12 0
15 0
15 0
15 0
15 0
4 10 0
4 0
6 0
3 0
4 10 3 0
3 9 0
6 0
3 9 4 0
12 1 0
12 -1 0
12 0
4 10 3 0
4 10 0
6 0
3 9 0
3 9 4 0
6 0
3 0
4 0
3 0
4 0
6 0
15 0
15 0
15 0
15 0
7 0
7 0
7 0
7 0
7 0
7 0
7 0
7 0
7 0
7 0
7 0
7 0
7 0
7 0
7 0
7 0
7 0
7 0
13 0
13 0
12 0
12 0
12 0
12 0
12 0
12 0
12 0
12 0
12 0
12 0
12 0
11 12 0
11 0
11 12 0
11 0
12 0
7 0
12 0
7 0
12 0
7 0
12 0
7 0
7 0
12 0
7 0
12 0
7 0
12 0
7 0
7 0
7 0
12 0
7 0
7 0
12 0
12 0
7 0
7 0
12 0
12 0
12 0
12 1 0
12 0
12 0
12 -1 0
12 0
15 0
15 0
15 0
15 0
15 0
15 0
15 0
15 0
15 0
15 0
7 1 0
7 -1 0
7 0
7 0
7 0
15 0
13 0
15 0
15 0
13 0
13 0
13 0
15 0
13 0
15 0
13 0
15 0
13 0
15 0
13 0
15 0
15 0
13 0
15 0
13 0
12 1 0
12 -1 0
12 0
12 0
12 0
11 0
13 1 0
13 -1 0
13 0
11 0
15 0
11 0
11 0
15 0
15 0
11 0
15 0
15 0
11 0
15 0
15 0
11 0
11 0
11 0
15 0
11 0
15 0
11 0
15 0
1 7 0
-1 7 0
7 0
15 0
15 0
15 0
15 0
15 0
15 0
15 0
15 0
15 0
15 0
7 0
7 0
4 10 3 0
3 9 0
4 10 0
3 9 4 0
6 0
4 0
6 0
3 0
6 0
3 0
4 0
1 11 0
-1 11 0
11 0
15 0
15 0
1 15 0
-1 15 0
15 0
15 1 0
15 -1 0
15 0
1 12 0
-1 12 0
12 0
11 0
11 0
7 0
7 0
7 0
7 0
7 0
7 0
7 0
7 0
7 0
7 11 0
7 0
7 0
7 0
7 11 0
7 0
7 0
7 0
7 11 0
7 0
7 0
7 11 0
7 0
5 0
12 0
12 0
5 14 0
-3 4 -10 0
4 -9 -10 0
-4 3 -9 0
3 -9 -10 0
4 10 1 0
4 10 3 1 0
3 9 1 0
4 3 1 9 0
4 3 -1 9 0
4 10 -1 0
3 9 -1 0
4 10 3 -1 0
3 0
4 0
7 0
7 0
7 0
7 0
7 0
7 0
7 0
7 0
7 0
1 7 0
-1 7 0
7 0
13 1 0
12 1 0
12 13 1 0
13 12 1 0
13 -1 0
12 13 -1 0
12 -1 0
13 12 -1 0
13 0
12 0
6 0
3 0
4 0
11 0
4 0
3 9 4 0
6 0
3 0
4 10 0
4 10 3 0
11 0
3 9 0
11 0
6 0
11 0
4 0
3 9 0
3 9 4 0
4 10 0
6 0
4 10 3 0
6 0
11 0
3 0
6 0
6 0
4 10 0
4 10 3 0
3 9 0
11 0
3 0
4 0
3 9 4 0
11 0
3 0
11 0
4 10 0
3 9 4 0
4 0
3 9 0
11 0
6 0
6 0
4 10 3 0
15 1 0
15 -1 0
15 0
15 0
15 0
13 0
13 0
13 0
13 0
13 0
13 0
13 0
13 0
13 0
13 0
15 0
15 0
15 0
15 0
15 0
15 0
15 0
15 0
15 0
15 0
15 0
15 0
15 0
15 0
15 0
15 0
15 0
15 0
15 0
15 0
15 0
15 0
15 0
15 0
15 0
1 7 0
-1 7 0
7 0
15 1 0
15 -1 0
15 0
3 0
4 0
4 10 3 0
3 9 0
4 10 0
3 0
4 0
3 9 4 0
4 -1 0
3 -1 0
3 0
4 0
12 0
11 0
11 0
12 0
12 0
11 0
11 0
12 0
11 0
12 0
11 0
12 0
11 0
12 0
11 0
12 0
11 0
12 0
12 0
12 0
12 0
12 0
12 0
12 0
12 0
12 0
12 0
1 12 0
-1 12 0
12 0
15 0
15 0
15 1 0
15 -1 0
15 0
11 0
11 0
11 0
11 0
11 0
11 0
11 0
11 -1 0
11 0
1 11 0
-1 11 0
11 0
12 0
12 0
15 0
15 0
15 0
15 0
15 0
15 0
15 0
15 0
15 0
15 0
15 0
15 0
15 0
15 0
15 0
15 0
15 0
15 0
15 0
15 0
15 0
15 0
15 0
15 0
15 0
15 0
15 0
15 0
7 0
7 0
7 0
7 0
7 0
7 0
7 0
7 0
7 0
15 0
15 0
15 0
15 0
15 0
15 0
15 0
15 0
15 0
15 0
15 0
15 0
15 0
15 0
15 0
15 0
15 0
15 0
15 0
15 0
15 0
15 0
15 0
15 0
15 0
15 0
15 0
15 0
15 0
15 0
15 0
15 0
15 0
15 0
15 0
15 0
15 0
15 0
15 0
15 0
15 0
15 0
15 0
15 0
15 0
15 0
15 0
15 0
15 0
15 0
15 0
15 0
15 0
15 0
15 0
15 0
6 0
4 10 3 0
3 0
4 10 0
6 0
3 9 4 0
4 0
3 9 0
1 7 0
-1 7 0
7 0
11 0
1 7 0
-1 7 0
7 0
4 0
7 0
3 0
3 9 0
4 10 3 0
3 9 4 0
4 10 0
7 0
4 10 3 0
7 4 0
7 4 10 3 0
3 9 7 0
7 3 0
3 9 4 0
4 10 7 0
4 10 0
7 0
3 9 0
7 4 3 9 0
4 10 3 0
7 4 0
7 4 10 3 0
3 9 7 0
7 3 0
3 9 4 0
4 10 7 0
4 10 0
7 0
3 9 0
7 4 3 9 0
4 0
3 0
13 0
3 9 0
3 9 4 0
3 0
4 0
13 0
13 0
4 10 0
4 10 3 0
4 10 0
3 9 0
4 10 3 0
3 9 4 0
3 0
13 0
4 0
13 0
3 9 4 0
4 10 0
4 0
4 10 3 0
13 0
13 0
3 9 0
3 0
3 9 0
13 0
13 0
4 10 0
4 10 3 0
3 0
3 9 4 0
4 0
3 0
4 0
13 0
13 0
3 0
4 0
3 9 0
13 0
13 0
4 0
3 9 4 0
4 10 3 0
3 0
4 10 0
4 0
4 10 0
13 0
3 0
3 9 0
13 0
4 10 3 0
3 9 4 0
13 0
3 0
3 9 4 0
3 9 0
4 10 0
4 0
13 0
4 10 3 0
4 10 3 0
4 0
13 0
3 9 0
3 0
4 10 0
13 0
3 9 4 0
3 0
4 0
13 0
3 9 0
3 9 4 0
4 10 0
6 0
4 10 3 0
4 0
6 0
3 0
3 0
6 0
4 0
6 0
3 0
4 10 3 0
4 10 0
3 9 0
3 9 4 0
6 0
4 0
3 0
6 0
4 0
1 12 0
-1 12 0
12 0
15 0
15 0
7 0
7 0
7 0
7 0
7 0
7 0
7 0
7 0
7 0
15 1 0
15 -1 0
15 0
11 0
11 0
11 0
11 0
11 0
11 0
11 0
11 0
11 0
11 0
-4 3 -9 0
4 -9 -10 0
-3 4 -10 0
3 -9 -10 0
4 10 1 0
4 10 3 1 0
3 9 1 0
4 3 1 9 0
4 3 -1 9 0
4 10 -1 0
4 10 3 -1 0
3 9 -1 0
3 0
4 0
-1 0
15 1 0
15 -1 0
15 0
7 0
7 0
7 0
7 0
7 0
7 0
7 0
7 0
7 0
15 0
15 0
4 10 3 0
3 0
6 0
3 9 0
3 9 4 0
4 10 0
6 0
4 0
6 0
3 0
4 0
2 0
4 0
3 0
6 0
4 10 0
6 3 0
4 3 6 9 0
6 0
2 8 0
4 10 3 6 0
6 4 0
3 9 0
4 10 3 0
3 9 4 0
4 10 6 0
3 9 6 0
-1 0
3 0
6 0
4 0
2 0
1 11 0
-1 11 0
11 0
15 0
15 0
15 0
15 0
15 0
15 0
15 0
15 0
15 0
13 0
13 0
13 0
13 0
13 0
13 0
13 0
13 0
13 0
13 0
15 0
15 0
15 0
15 0
15 0
15 0
12 1 0
12 -1 0
12 0
15 0
15 0
15 0
15 0
15 0
15 0
15 0
15 0
15 0
7 1 0
7 -1 0
7 0
1 12 0
1 11 0
-1 12 0
-1 11 0
12 0
11 0
11 0
5 0
5 0
11 0
11 0
11 0
5 14 0
11 0
5 14 0
5 0
11 0
11 0
5 0
11 0
11 0
5 14 0
11 0
11 0
5 0
5 14 0
11 0
11 0
11 0
5 0
1 11 0
-1 11 0
11 0
15 1 0
15 -1 0
15 0
7 0
7 0
7 0
7 0
7 0
7 0
7 0
7 0
7 0
7 0
7 0
7 0
7 0
7 0
-2 -11 -16 -5 0
-2 -16 -5 0
-8 -16 -5 0
-14 -2 -16 0
-2 -16 -5 0
-14 -8 -16 0
-8 -16 -5 0
-2 -16 -5 0
-14 -2 -16 0
-14 -8 -16 0
2 0
3 0
4 0
6 0
2 8 0
4 10 0
4 10 6 0
4 10 3 0
6 3 0
4 3 6 9 0
3 9 6 0
6 0
4 10 3 6 0
3 9 0
6 4 0
3 9 4 0
-1 0
6 0
2 0
3 0
4 0
1 7 0
-1 7 0
7 0
13 1 0
13 -1 0
13 0
15 1 0
15 -1 0
15 0
1 15 0
-1 15 0
15 0
7 0
7 0
7 0
7 0
7 0
7 0
7 0
7 0
7 0
12 0
12 0
12 0
12 0
12 0
12 0
12 0
12 0
12 0
12 0
12 0
1 11 0
-1 11 0
11 0
3 0
6 0
4 0
3 0
4 10 0
4 10 3 0
3 9 0
4 0
6 0
3 9 4 0
6 0
6 0
4 0
3 9 0
4 10 3 0
4 10 0
3 9 4 0
3 0
6 0
4 10 3 0
3 9 4 0
4 0
6 0
3 9 0
3 0
4 10 0
6 0
4 10 0
3 9 0
4 0
3 0
6 0
6 0
4 10 3 0
3 9 4 0
6 0
4 0
3 0
1 11 0
-1 11 0
11 0
15 0
15 0
15 0
15 0
15 0
15 0
15 0
15 0
15 0
15 0
15 0
15 0
15 0
15 0
15 0
15 0
15 0
15 0
15 0
15 0
15 0
15 0
15 0
15 0
15 0
15 0
15 0
1 15 0
-1 15 0
15 0
7 0
7 0
7 0
7 0
7 0
7 0
7 0
7 0
7 0
15 1 0
15 -1 0
15 0
13 1 0
13 -1 0
13 0
11 0
12 0
11 0
12 0
11 0
12 0
11 0
12 0
12 0
11 0
12 0
11 0
12 0
11 0
11 0
11 0
12 0
12 0
12 0
11 0
1 12 0
-1 12 0
12 0
15 0
15 0
15 0
15 0
15 0
15 0
15 0
15 0
15 0
15 0
15 0
15 0
15 0
15 0
11 0
1 7 0
-1 7 0
7 0
15 0
15 1 0
15 -1 0
15 0
1 11 0
-1 11 0
11 0
7 1 0
7 -1 0
7 0
15 0
15 0
15 0
15 0
15 0
15 0
15 0
15 0
15 0
15 0
15 0
15 0
15 -1 0
15 0
15 0
15 0
15 0
15 1 0
15 -1 0
15 0
15 0
15 0
15 0
15 0
15 0
15 0
15 0
15 0
15 0
15 0
15 0
15 0
15 0
15 0
15 0
15 0
15 0
11 0
11 0
12 0
12 0
11 0
11 0
11 0
11 0
11 0
12 0
11 0
12 0
12 0
11 0
11 0
12 0
11 0
11 0
11 0
12 0
11 0
11 0
12 0
11 0
7 0
7 0
7 0
7 0
7 0
7 0
7 0
7 0
7 0
7 0
7 0
7 0
7 0
7 0
7 0
7 0
7 0
7 0
11 0
11 0
13 0
13 0
13 0
13 0
13 0
13 0
13 0
13 0
13 0
13 0
13 0
13 0
13 0
1 11 0
-1 11 0
11 0
11 0
12 0
12 0
11 0
11 0
12 0
11 0
12 0
11 0
11 0
12 0
12 0
11 0
11 0
12 0
12 0
11 0
12 0
15 0
15 0
15 0
15 0
15 0
15 0
15 0
15 0
1 15 0
-1 15 0
15 0
4 0
6 0
3 0
2 0
3 9 6 0
3 9 0
6 4 0
4 10 3 6 0
3 9 4 0
4 10 0
2 8 0
4 10 6 0
4 3 6 9 0
6 3 0
6 0
4 10 3 0
-1 0
3 0
6 0
2 0
4 0
11 0
12 1 0
12 -1 0
12 0
15 0
15 0
15 0
1 11 0
-1 11 0
11 0
1 7 0
1 12 0
-1 7 0
-1 12 0
7 0
12 0
13 0
13 0
13 0
13 0
13 0
13 0
13 0
13 0
13 0
13 0
7 0
15 0
15 0
15 0
7 0
15 0
-4 3 -9 0
3 -9 -10 0
4 -9 -10 0
-3 4 -10 0
4 10 3 1 0
4 10 1 0
4 3 1 9 0
3 9 1 0
4 3 -1 9 0
4 10 3 -1 0
3 9 -1 0
4 10 -1 0
3 0
4 0
15 1 0
15 -1 0
15 0
7 0
7 0
7 0
7 0
7 0
7 0
7 0
7 0
7 0
7 0
7 0
7 0
7 0
7 0
7 0
7 0
7 0
7 0
1 15 0
-1 15 0
15 0
1 11 0
-1 11 0
11 0
13 1 0
13 -1 0
13 0
3 0
13 0
4 0
4 0
4 10 3 0
3 0
3 9 4 0
3 9 0
13 0
4 10 0
13 0
4 10 3 0
13 0
13 0
3 0
4 0
3 9 0
3 9 4 0
4 10 0
3 9 0
3 0
13 0
4 10 0
13 0
3 9 4 0
4 0
4 10 3 0
13 0
4 10 3 0
3 9 0
4 10 0
3 0
13 0
3 9 4 0
4 0
3 0
4 0
13 0
7 0
7 0
11 0
11 0
15 0
15 0
15 0
15 0
15 0
15 0
15 0
15 0
15 0
15 0
3 0
4 0
4 0
3 9 4 0
4 10 3 0
3 9 0
4 10 0
3 0
4 10 3 0
3 9 0
4 10 0
4 0
3 0
3 9 4 0
3 9 0
4 0
4 10 3 0
4 10 0
3 9 4 0
3 0
3 0
3 9 4 0
3 9 0
4 0
4 10 3 0
4 10 0
3 0
4 0
1 12 0
-1 12 0
12 0
4 0
6 0
3 0
6 0
6 4 0
3 9 0
3 9 6 0
4 3 6 9 0
3 0
4 10 3 0
6 3 0
4 10 3 6 0
4 0
4 10 0
4 10 6 0
3 9 4 0
6 0
4 0
4 10 0
6 4 0
4 10 3 6 0
3 9 6 0
4 3 6 9 0
4 10 6 0
6 0
4 10 3 0
6 3 0
3 9 4 0
3 0
3 9 0
6 0
3 0
4 0
4 10 3 6 0
4 10 0
6 3 0
4 10 3 0
6 4 0
6 0
4 3 6 9 0
6 0
3 9 0
3 9 4 0
4 10 6 0
3 9 6 0
4 10 3 6 0
3 9 6 0
4 10 6 0
6 0
6 4 0
4 10 0
3 0
4 10 3 0
3 9 0
4 3 6 9 0
6 0
6 3 0
4 0
3 9 4 0
12 0
11 0
11 0
11 0
12 1 0
11 1 0
11 12 1 0
11 12 -1 0
11 -1 0
12 -1 0
12 0
11 0
15 1 0
15 -1 0
15 0
12 1 0
12 -1 0
12 0
1 12 0
-1 12 0
12 0
12 0
12 0
12 0
12 0
12 0
12 0
1 15 0
-1 15 0
15 0
7 1 0
12 7 1 0
12 1 0
7 -1 0
12 -1 0
12 7 -1 0
7 0
12 0
13 0
5 0
13 0
5 13 14 0
5 14 0
5 13 0
5 0
13 0
13 0
5 0
5 13 0
5 14 0
13 0
13 0
13 0
5 13 14 0
5 0
5 0
5 13 14 0
13 0
5 14 0
13 0
5 13 0
5 0
13 0
5 0
5 13 0
13 0
5 14 0
5 13 14 0
13 0
5 0
5 0
13 0
5 0
13 0
1 11 0
-1 11 0
11 0
11 1 0
11 -1 0
11 0
4 -9 -10 0
-3 4 -10 0
3 -9 -10 0
-4 3 -9 0
3 9 1 0
4 10 1 0
4 3 1 9 0
4 10 3 1 0
4 10 -1 0
4 3 -1 9 0
4 10 3 -1 0
3 9 -1 0
3 0
4 0
1 15 0
-1 15 0
15 0
3 9 4 0
3 9 0
4 0
4 10 3 0
4 10 0
6 0
3 0
6 0
6 0
4 0
3 0
-1 0
12 0
12 0
11 1 0
11 -1 0
11 0
12 1 0
12 -1 0
12 0
4 0
3 0
4 10 0
3 9 0
3 9 4 0
3 0
4 0
4 10 3 0
4 -1 0
3 -1 0
3 0
4 0
6 0
3 9 4 0
3 9 0
3 0
6 0
4 0
4 10 3 0
4 10 0
6 0
4 0
3 0
12 0
12 0
1 11 0
-1 11 0
11 0
13 1 0
13 -1 0
13 0
7 1 0
7 -1 0
7 0
12 1 0
12 -1 0
12 0
15 0
15 0
15 0
15 0
15 0
15 0
15 0
15 0
15 0
15 0
11 0
15 0
15 0
13 1 0
13 -1 0
13 0
12 1 0
12 -1 0
12 0
2 8 1 0
2 -1 0
3 0
6 0
4 0
3 9 4 0
4 10 0
3 9 0
3 0
4 10 3 0
6 0
6 0
4 0
6 0
3 0
6 0
3 9 4 0
4 10 0
4 0
4 10 3 0
3 9 0
6 0
3 9 4 0
3 9 0
4 10 3 0
6 0
4 10 0
3 0
4 0
4 10 3 0
6 0
4 0
4 10 0
3 9 0
3 9 4 0
3 0
6 0
4 0
3 0
6 0
1 12 0
1 11 0
-1 12 0
-1 11 0
12 0
11 0
15 0
15 0
15 0
15 0
15 0
1 11 0
-1 11 0
11 0
7 0
7 0
4 0
3 0
6 0
6 0
4 10 3 6 0
4 10 0
3 0
6 4 0
3 9 0
6 3 0
6 0
4 0
3 9 6 0
4 10 3 0
3 9 4 0
4 10 6 0
4 3 6 9 0
4 3 6 9 0
4 10 6 0
3 9 0
4 10 0
3 9 4 0
6 4 0
3 9 6 0
4 10 3 0
4 0
6 0
4 10 3 6 0
6 3 0
3 0
6 0
6 4 0
4 10 0
4 10 3 0
3 9 4 0
6 0
3 9 0
3 9 6 0
3 0
6 0
4 10 3 6 0
4 3 6 9 0
4 0
4 10 6 0
6 3 0
3 0
3 9 0
4 10 3 6 0
4 10 6 0
6 4 0
3 9 4 0
6 3 0
4 10 3 0
4 3 6 9 0
6 0
4 0
6 0
4 10 0
3 9 6 0
4 0
3 0
6 0
13 0
13 0
7 1 0
7 -1 0
7 0
-14 -13 -8 -16 0
-14 -13 -2 -16 0
-13 -2 -16 -5 0
-13 -8 -16 -5 0
15 0
15 0
15 1 0
15 -1 0
15 0
11 0
11 0
11 0
11 0
11 0
11 0
12 0
12 0
12 0
12 0
12 0
12 0
12 7 1 0
12 1 0
7 1 0
7 -1 0
12 -1 0
12 7 -1 0
7 0
12 0
5 0
13 0
5 13 14 0
13 0
5 0
5 13 0
13 0
13 0
5 0
5 14 0
13 0
5 0
5 0
5 13 0
13 0
5 13 14 0
13 0
5 14 0
5 13 14 0
5 14 0
13 0
5 0
13 0
13 0
5 13 0
5 0
13 0
5 0
5 13 14 0
13 0
5 14 0
13 0
5 0
5 13 0
13 0
5 0
13 0
13 0
13 0
13 0
13 0
13 0
13 0
13 0
13 0
13 0
13 0
13 0
13 0
13 0
13 0
13 0
13 0
13 0
13 0
13 0
13 0
13 0
13 0
13 0
13 0
13 0
13 0
13 0
13 0
11 0
11 0
15 1 0
15 -1 0
15 0
2 0
2 0
2 8 0
5 14 0
5 0
2 0
5 0
2 8 0
5 14 0
2 0
5 0
2 0
2 0
2 8 0
5 14 0
5 14 0
2 0
2 8 0
7 0
7 0
7 0
7 0
7 0
7 0
7 0
7 0
7 0
15 0
15 0
15 0
15 0
15 0
15 0
15 0
15 0
7 0
7 0
13 0
13 0
1 11 0
-1 11 0
11 0
1 12 0
-1 12 0
12 0
13 1 0
13 -1 0
13 0
1 12 0
-1 12 0
12 0
15 0
15 0
5 14 0
11 5 0
11 0
11 0
5 0
5 11 14 0
5 0
11 0
5 14 0
11 0
5 11 14 0
11 5 0
5 0
11 0
11 5 0
5 11 14 0
11 0
5 14 0
11 0
5 0
7 0
7 0
7 0
7 0
7 0
7 0
7 0
7 0
7 0
1 12 0
1 11 0
-1 12 0
-1 11 0
12 0
11 0
7 1 0
7 -1 0
7 0
15 0
15 0
15 0
15 0
15 1 0
-1 15 0
15 0
13 1 0
13 -1 0
13 0
-2 -11 -16 -5 0
-8 -16 -5 0
-14 -8 -16 0
-2 -16 -5 0
-2 -16 -5 0
-14 -2 -16 0
-8 -16 -5 0
-2 -16 -5 0
-14 -2 -16 0
-14 -8 -16 0
-8 -16 -5 0
-14 -2 -16 0
-14 -8 -16 0
-2 -16 -5 0
2 -12 -8 -7 0
2 8 12 1 0
2 7 8 1 0
12 7 1 0
2 8 1 0
7 1 0
7 2 1 0
12 2 1 0
12 1 0
12 7 -1 0
7 -1 0
2 7 8 -1 0
12 2 -1 0
2 8 -1 0
12 -1 0
7 2 -1 0
2 8 12 -1 0
2 0
12 0
7 0
15 0
15 0
15 0
15 0
15 0
15 0
15 0
15 0
15 0
15 0
15 0
15 0
15 0
15 0
15 0
13 0
13 0
13 0
13 0
13 0
13 0
13 0
13 0
13 0
13 0
1 7 0
-1 7 0
7 0
12 0
12 0
12 0
12 0
12 0
12 0
1 12 0
-1 12 0
12 0
1 15 0
-1 15 0
15 0
-3 4 -10 0
3 -9 -10 0
-4 3 -9 0
4 -9 -10 0
4 0
3 9 0
4 10 0
4 10 3 0
3 9 4 0
3 0
3 0
3 9 4 0
4 0
4 10 3 0
4 10 0
3 9 0
4 0
3 9 4 0
3 9 0
4 10 3 0
4 10 0
3 0
4 0
4 10 3 0
3 9 0
3 0
4 10 0
3 9 4 0
3 0
4 0
7 0
7 0
7 0
7 0
13 0
5 0
13 0
5 0
5 0
5 14 0
13 0
13 0
5 13 14 0
5 13 0
5 0
13 0
5 0
5 14 0
5 13 0
13 0
5 13 14 0
13 0
5 0
13 0
5 14 0
5 0
13 0
5 13 0
13 0
5 13 14 0
13 0
5 0
5 14 0
13 0
5 0
5 13 0
13 0
5 13 14 0
13 0
5 0
1 11 0
-1 11 0
11 0
12 0
12 0
12 0
12 0
12 0
12 0
15 0
15 0
7 0
7 0
7 0
7 0
7 0
7 0
7 0
7 0
7 0
15 1 0
15 -1 0
15 0
4 0
3 0
3 0
4 0
3 9 0
4 10 0
3 9 4 0
4 10 3 0
3 9 0
4 10 3 0
3 9 4 0
3 0
4 10 0
4 0
4 10 0
3 9 4 0
4 10 3 0
3 0
4 0
3 9 0
4 10 3 0
4 0
3 0
3 9 0
4 10 0
3 9 4 0
3 0
4 0
1 7 0
-1 7 0
7 0
1 7 0
-1 7 0
7 0
13 0
5 0
5 13 0
13 0
13 0
5 0
5 0
5 14 0
5 13 14 0
13 0
5 13 14 0
13 0
5 14 0
13 0
5 0
5 13 0
13 0
5 0
5 13 0
13 0
5 13 14 0
5 0
13 0
13 0
5 14 0
5 0
5 0
5 0
5 13 0
13 0
5 14 0
5 13 14 0
13 0
13 0
13 0
5 0
5 0
13 0
13 0
5 13 14 0
5 0
13 0
5 0
5 13 0
13 0
5 14 0
5 14 0
5 13 14 0
13 0
5 0
5 13 0
13 0
5 0
13 0
5 0
5 0
5 14 0
13 0
5 13 14 0
5 13 0
13 0
13 0
5 13 14 0
13 0
13 0
5 0
13 0
5 14 0
5 0
5 13 0
5 0
13 0
7 1 0
7 -1 0
7 0
1 12 0
-1 12 0
12 0
-3 4 -10 0
4 -9 -10 0
3 -9 -10 0
-4 3 -9 0
4 10 3 1 0
4 10 1 0
4 3 1 9 0
3 9 1 0
3 9 -1 0
4 3 -1 9 0
4 10 3 -1 0
4 10 -1 0
3 0
4 0
13 0
13 0
13 0
13 0
7 0
7 0
15 0
15 0
6 0
11 0
3 0
3 6 0
12 0
3 9 0
6 0
3 6 9 0
11 0
6 0
3 0
11 0
11 0
11 0
3 6 0
6 0
3 0
6 0
3 9 0
3 6 9 0
11 0
12 0
6 0
3 0
3 0
3 0
11 0
11 0
3 9 0
12 0
3 6 0
6 0
6 0
11 0
3 6 9 0
6 0
6 0
6 0
11 0
3 0
3 9 0
11 0
3 6 0
12 0
3 6 9 0
11 0
3 0
6 0
1 12 0
-1 12 0
12 0
11 0
3 6 0
4 10 3 6 0
4 0
11 0
3 6 9 0
3 0
4 10 0
4 3 9 0
4 6 0
4 10 3 0
4 10 6 0
6 0
4 3 6 9 0
6 0
3 9 0
4 0
3 6 0
4 3 9 0
4 3 6 9 0
3 9 0
3 0
6 0
4 10 0
11 0
3 6 9 0
4 6 0
11 0
4 10 3 6 0
4 10 3 0
6 0
4 10 6 0
3 -1 0
6 -1 0
4 -1 0
11 -1 0
4 3 9 0
4 10 6 0
11 0
3 0
3 9 0
4 10 3 6 0
4 0
3 6 9 0
4 0
6 0
3 0
4 10 0
3 9 0
4 3 6 9 0
4 6 0
11 0
6 0
4 10 3 0
4 10 0
3 6 0
4 0
11 4 0
3 0
3 4 0
6 3 0
11 3 0
6 4 0
4 0
4 10 0
6 0
3 0
4 10 3 0
3 9 0
6 0
3 9 4 0
4 0
6 0
3 0
1 11 0
-1 11 0
11 0
7 0
7 0
7 0
7 0
7 0
7 0
7 0
7 0
7 0
-3 4 -10 0
3 -9 -10 0
-4 3 -9 0
4 -9 -10 0
4 3 1 9 0
3 9 1 0
4 10 1 0
4 10 3 1 0
4 10 -1 0
4 3 -1 9 0
3 9 -1 0
4 10 3 -1 0
3 0
4 0
12 7 0
12 7 0
6 0
4 10 3 0
4 10 0
3 9 4 0
6 0
3 9 0
3 0
4 0
6 0
4 0
3 0
13 0
13 0
13 0
13 0
13 0
13 0
13 0
13 0
13 0
13 0
7 0
7 0
13 0
5 0
5 0
13 0
13 0
5 13 0
5 13 14 0
5 14 0
5 0
13 0
5 0
5 0
5 13 0
5 13 14 0
5 14 0
13 0
13 0
13 0
5 0
5 13 0
5 14 0
13 0
5 13 14 0
13 0
5 0
13 0
5 13 14 0
5 13 0
5 14 0
5 0
5 0
13 0
13 0
13 0
5 0
13 0
12 0
12 0
12 0
12 0
12 0
12 0
12 0
12 0
12 0
15 0
15 0
15 0
15 0
12 0
12 0
15 1 0
15 -1 0
15 0
15 0
15 0
15 0
15 0
15 0
15 0
15 0
15 0
12 0
12 0
15 0
15 0
15 0
15 0
15 0
15 0
15 0
15 0
15 0
15 0
15 0
15 0
15 0
15 0
1 12 0
1 11 0
-1 12 0
-1 11 0
12 0
11 0
15 1 0
-1 15 0
15 0
13 1 0
13 -1 0
13 0
1 15 0
-1 15 0
15 0
2 0
3 0
4 0
6 0
3 0
6 0
4 0
2 0
-1 0
2 0
3 0
6 0
4 0
15 0
15 0
15 0
15 0
15 0
15 0
15 0
15 0
15 0
1 11 0
-1 11 0
11 0
7 0
7 0
7 0
7 0
7 0
7 0
12 0
12 0
7 0
12 0
7 0
15 0
15 0
15 0
7 0
7 0
7 0
7 0
7 0
7 0
7 0
7 0
7 0
7 0
7 0
7 0
7 0
7 0
7 0
7 0
7 0
7 0
7 0
7 0
4 0
3 0
11 0
6 0
4 10 0
4 0
4 0
6 0
3 6 9 0
4 3 9 0
6 0
3 9 0
4 6 0
11 0
11 0
4 3 6 9 0
3 0
11 0
4 10 3 6 0
3 6 0
4 10 6 0
3 0
6 0
4 10 3 0
11 0
6 0
3 0
11 0
4 3 6 9 0
4 10 3 0
4 10 6 0
4 3 9 0
3 0
3 6 0
4 0
11 0
4 6 0
6 0
11 0
3 9 0
4 10 3 6 0
4 10 0
4 0
11 0
6 0
3 6 9 0
11 0
4 3 9 0
4 6 0
6 0
4 0
11 0
11 0
6 0
4 10 6 0
6 0
4 10 3 0
4 0
3 6 0
3 9 0
4 10 0
3 6 9 0
4 3 6 9 0
3 0
4 10 3 6 0
11 0
3 0
6 0
3 6 9 0
11 0
3 0
6 0
4 10 3 6 0
6 0
4 0
4 10 3 0
11 0
4 3 9 0
3 6 0
4 10 6 0
4 6 0
3 0
4 3 6 9 0
11 0
11 0
4 0
4 10 0
3 9 0
3 0
4 0
6 0
11 0
13 0
13 0
13 0
13 0
13 0
13 0
3 0
13 0
5 0
13 0
13 0
5 13 0
13 0
5 13 14 0
5 0
5 0
3 0
5 14 0
3 9 0
13 0
3 0
5 0
5 14 0
5 0
13 0
3 9 0
5 13 0
13 0
5 13 14 0
5 13 0
5 0
5 14 0
3 0
13 0
13 0
5 0
3 9 0
13 0
5 13 14 0
5 13 0
5 0
3 0
13 0
5 13 14 0
3 9 0
13 0
5 0
13 0
5 14 0
5 0
13 0
3 0
1 12 0
-1 12 0
12 0
11 0
3 0
4 0
6 0
4 10 3 6 0
3 9 0
4 10 0
6 0
6 4 0
11 0
6 3 0
4 10 3 0
4 10 6 0
3 9 6 0
4 0
6 0
4 3 6 9 0
3 9 4 0
3 0
11 0
3 9 4 0
4 10 6 0
6 0
3 9 0
3 0
6 3 0
6 0
6 4 0
4 10 3 6 0
4 3 6 9 0
3 9 6 0
11 0
4 10 3 0
4 0
4 10 0
11 0
4 0
6 0
6 4 0
3 9 4 0
4 10 3 0
3 9 6 0
4 3 6 9 0
4 10 6 0
3 9 0
4 10 3 6 0
11 0
3 0
4 10 0
11 0
6 0
6 3 0
3 9 0
6 0
4 10 3 6 0
3 9 4 0
6 0
4 3 6 9 0
3 0
3 9 6 0
11 0
4 0
11 0
4 10 3 0
6 3 0
4 10 6 0
4 10 0
6 4 0
3 0
4 0
6 0
11 0
4 10 0
3 9 0
3 0
4 0
-16 -5 0
-14 -16 0
15 1 0
15 -1 0
15 0
15 0
15 0
4 10 3 0
3 0
3 9 0
4 0
4 10 0
3 9 4 0
6 0
6 0
6 0
4 0
3 0
7 0
12 0
12 0
12 0
7 0
7 0
7 0
7 0
12 0
12 0
7 0
7 0
12 0
12 0
7 0
7 0
7 0
7 0
7 0
12 0
12 0
7 0
12 0
7 0
13 0
5 0
5 0
13 0
5 13 0
5 0
13 0
5 13 14 0
13 0
5 14 0
5 0
13 0
5 14 0
13 0
13 0
5 13 0
5 13 14 0
5 0
5 13 0
5 0
13 0
13 0
5 0
5 13 14 0
5 14 0
13 0
5 0
5 14 0
13 0
5 0
13 0
5 13 14 0
13 0
5 13 0
5 0
13 0
15 0
15 0
15 0
15 0
7 1 0
12 1 0
12 7 1 0
12 7 -1 0
12 -1 0
7 -1 0
7 0
12 0
7 0
7 0
7 0
7 0
7 0
7 0
7 0
7 0
7 0
3 0
13 0
4 0
3 0
4 10 0
13 0
3 9 0
4 10 3 0
3 9 4 0
13 0
4 0
13 0
4 0
13 0
3 9 4 0
3 9 0
4 10 3 0
3 0
4 10 0
13 0
3 9 4 0
3 9 0
4 10 0
4 10 3 0
4 0
3 0
13 0
13 0
3 0
3 9 4 0
4 0
4 10 3 0
13 0
4 10 0
3 9 0
3 0
4 0
13 0
1 12 0
-1 12 0
12 0
1 11 0
-1 11 0
11 0
7 0
7 0
7 0
7 0
7 0
7 0
7 0
7 0
7 0
7 1 0
7 -1 0
7 0
15 0
15 0
15 0
15 0
3 9 4 0
3 9 0
3 0
6 0
4 10 3 0
4 0
6 0
4 10 0
4 0
3 0
6 0
11 12 1 0
11 1 0
12 1 0
12 -1 0
11 -1 0
11 12 -1 0
12 0
11 0
13 1 0
13 -1 0
13 0
15 0
15 0
15 0
15 0
15 0
15 0
15 0
15 0
15 0
15 0
15 0
15 0
15 0
15 0
15 0
15 0
15 0
15 0
15 0
15 0
15 0
15 0
7 0
7 0
1 7 0
-1 7 0
7 0
15 0
15 0
15 0
15 0
15 0
15 0
15 0
15 0
15 0
15 0
15 0
15 0
15 0
15 0
11 0
11 0
7 1 0
7 -1 0
7 0
7 0
7 0
7 0
7 0
7 0
7 0
7 0
7 0
7 0
7 0
7 0
7 0
7 0
7 0
7 0
7 0
6 0
4 0
2 0
3 0
4 0
3 0
2 0
6 0
-1 0
3 0
6 0
2 0
4 0
1 15 0
-1 15 0
15 0
11 0
3 9 4 0
6 0
6 0
4 0
4 10 3 0
3 9 0
3 0
4 10 0
6 0
4 0
3 0
11 1 0
11 -1 0
11 0
3 9 4 0
4 10 0
3 9 4 0
3 9 0
4 3 9 0
4 10 0
4 10 3 0
3 9 0
4 3 9 0
3 9 4 0
4 0
4 10 3 0
4 0
4 10 0
4 10 3 0
4 10 0
3 9 0
3 9 4 0
4 10 0
3 9 4 0
4 10 3 0
4 10 3 0
3 9 4 0
4 10 3 0
4 10 0
4 10 3 0
4 0
4 10 3 0
3 9 0
4 0
4 10 0
4 10 3 0
3 9 4 0
4 10 3 0
4 10 0
3 9 4 0
3 9 4 0
3 9 4 0
4 10 3 0
4 10 3 0
4 10 3 0
3 9 0
3 9 0
3 9 4 0
3 9 0
4 10 0
3 0
3 9 4 0
4 10 3 0
4 3 9 0
4 10 0
4 10 3 0
3 0
3 0
4 3 9 0
3 9 0
3 9 0
4 10 3 0
3 9 0
3 9 0
4 10 0
4 10 3 0
4 10 0
4 10 0
4 10 0
3 9 4 0
3 9 0
3 9 0
3 9 4 0
3 9 0
3 9 0
4 10 0
3 9 0
4 10 0
3 9 4 0
4 10 0
4 10 3 0
3 0
4 10 0
3 9 0
4 10 3 0
3 9 0
3 9 0
4 10 0
3 9 4 0
4 10 0
4 10 0
4 10 0
3 9 4 0
3 9 0
3 9 0
3 9 0
3 9 0
4 10 3 0
4 0
4 10 0
4 10 0
4 10 0
3 9 0
4 10 3 0
4 10 3 0
4 10 3 0
4 10 3 0
3 9 0
3 9 0
3 9 4 0
3 9 4 0
4 10 0
3 9 0
4 10 0
3 9 0
3 9 4 0
4 10 3 0
3 9 4 0
3 9 4 0
4 10 3 0
4 10 0
4 3 9 0
3 0
4 10 3 0
3 9 4 0
4 3 9 0
4 10 3 0
3 0
4 3 9 0
4 10 3 0
4 10 0
4 10 3 0
4 10 0
3 0
4 10 3 0
4 10 0
3 9 0
3 9 4 0
4 10 0
4 10 3 0
3 9 0
3 9 4 0
4 10 3 0
3 9 0
3 0
4 10 3 0
3 9 0
4 10 3 0
3 9 0
4 10 3 0
3 9 4 0
4 10 0
4 10 0
3 9 4 0
3 9 0
3 9 4 0
3 9 4 0
4 10 0
4 10 3 0
4 10 0
3 9 0
3 9 0
4 10 0
3 9 0
4 0
4 3 9 0
4 0
4 10 3 0
4 0
4 10 0
3 9 4 0
3 9 0
3 0
4 0
4 0
4 0
3 0
4 0
4 0
4 0
3 0
4 0
3 0
4 0
3 0
3 0
3 0
4 0
3 0
4 0
4 0
4 0
4 0
3 0
3 0
3 0
4 0
4 0
3 0
3 0
4 0
3 0
4 0
3 0
3 0
3 0
3 0
3 0
4 0
4 0
4 10 3 0
3 9 0
3 9 0
4 10 0
4 10 0
3 9 0
3 9 0
4 10 3 0
4 10 0
4 10 3 0
4 10 0
4 10 0
4 10 3 0
3 9 4 0
4 10 3 0
3 9 4 0
4 3 9 0
4 3 9 0
4 10 3 0
4 10 3 0
3 0
3 9 0
3 9 0
3 9 4 0
3 9 4 0
3 9 0
4 10 0
3 9 4 0
4 10 0
4 10 0
3 9 4 0
3 9 0
4 0
4 10 3 0
4 3 9 0
4 10 3 0
3 9 4 0
4 10 0
3 9 0
4 10 0
4 10 0
4 10 3 0
4 0
3 9 0
4 10 0
3 9 0
4 10 0
3 9 0
4 10 3 0
3 9 4 0
4 10 0
4 0
4 10 3 0
3 9 4 0
4 0
3 9 0
4 10 0
4 10 0
4 10 0
4 0
3 0
4 10 3 0
3 9 4 0
4 10 0
3 9 4 0
4 10 0
4 10 3 0
4 10 3 0
4 10 3 0
3 9 0
3 9 4 0
3 0
4 3 9 0
4 10 3 0
3 9 4 0
3 0
4 10 3 0
3 9 0
4 10 0
3 9 0
3 0
3 9 0
3 9 0
3 9 0
3 9 4 0
4 10 3 0
3 9 0
3 9 4 0
4 0
3 0
4 0
3 0
4 0
4 0
3 0
4 0
4 0
4 0
4 0
3 0
3 0
4 0
4 0
3 0
3 0
3 0
3 0
4 0
3 0
4 0
4 0
3 0
4 0
4 0
4 0
3 0
3 0
4 0
4 0
3 0
3 0
3 0
3 0
3 0
3 0
4 0
3 0
4 0
11 1 0
11 -1 0
11 0
11 0
11 0
2 -8 -7 0
2 -8 0
7 0
7 0
-8 7 2 0
7 0
7 0
2 -8 0
-8 7 2 0
7 0
7 0
-8 7 2 0
2 -8 0
2 -8 0
7 0
-8 7 2 0
7 0
7 0
2 -8 0
1 7 0
-1 7 0
7 0
11 1 0
11 -1 0
11 0
1 12 0
-1 12 0
12 0
5 0
5 14 0
5 0
5 14 0
5 0
5 0
5 14 0
5 14 0
5 0
5 0
11 0
11 0
1 11 0
-1 11 0
11 0
11 0
12 0
12 0
11 0
11 12 0
11 0
12 0
12 0
11 0
11 12 0
4 3 6 9 0
3 9 4 0
4 10 6 0
3 9 0
4 10 0
6 4 0
6 0
6 3 0
3 9 6 0
4 10 3 6 0
4 10 3 0
4 0
4 10 3 0
3 9 4 0
3 9 0
6 0
6 0
4 10 0
3 0
7 11 0
7 11 0
7 11 0
7 11 0
7 11 0
7 11 0
7 11 0
7 11 0
7 11 0
12 0
7 0
1 12 0
-1 12 0
12 0
5 0
13 0
5 0
13 0
13 0
5 14 0
5 13 14 0
13 0
5 0
5 13 0
5 14 0
5 0
5 13 14 0
13 0
5 0
5 13 0
13 0
13 0
13 0
13 0
5 13 0
5 14 0
5 13 14 0
13 0
5 0
5 0
5 14 0
5 13 14 0
5 0
5 0
13 0
5 13 0
13 0
13 0
5 0
13 0
11 0
11 0
11 0
11 0
11 0
11 0
11 0
11 0
11 0
11 0
15 1 0
15 -1 0
15 0
-4 3 -9 0
3 -9 -10 0
-3 4 -10 0
4 -9 -10 0
3 9 1 0
4 10 3 1 0
4 10 1 0
4 3 1 9 0
4 10 3 -1 0
3 9 -1 0
4 10 -1 0
4 3 -1 9 0
3 0
4 0
7 0
15 0
12 0
7 0
12 0
15 0
12 0
15 0
7 0
15 0
7 0
12 0
12 0
7 0
15 0
7 1 0
7 -1 0
7 0
4 0
6 0
4 10 3 0
3 0
3 9 0
4 10 0
6 0
3 9 4 0
6 0
4 0
3 0
15 0
15 0
15 0
7 1 0
7 -1 0
7 0
7 0
7 0
12 7 0
12 7 0
1 15 0
-1 15 0
15 0
1 12 0
-1 12 0
12 0
15 0
15 0
3 9 4 0
3 9 0
4 0
6 0
6 0
4 10 0
4 10 3 0
3 0
6 0
3 0
4 0
11 0
12 0
11 0
12 0
7 1 0
7 -1 0
7 0
15 0
15 0
15 0
4 3 9 0
4 10 3 0
3 9 0
4 0
3 0
4 10 0
3 9 0
4 0
3 9 0
3 0
4 0
4 10 3 0
4 10 0
3 0
4 3 9 0
4 10 0
15 7 0
7 0
15 0
15 0
15 0
7 0
15 7 0
7 0
15 0
15 0
15 0
7 0
1 12 0
-1 12 0
12 0
15 1 0
15 -1 0
15 0
15 1 0
15 1 0
15 1 0
15 -1 0
15 0
1 7 0
-1 7 0
7 0
12 0
12 1 0
12 -1 0
12 0
15 0
15 0
15 0
15 0
15 0
15 0
13 12 1 0
12 1 0
12 13 1 0
13 1 0
13 12 -1 0
12 -1 0
12 13 -1 0
13 -1 0
13 0
12 0
4 0
3 0
6 0
3 9 4 0
4 10 0
3 0
4 10 3 0
3 9 0
6 4 0
6 3 0
6 0
6 0
3 9 6 0
4 10 3 6 0
4 0
4 3 6 9 0
4 10 6 0
6 3 0
4 10 6 0
4 3 6 9 0
3 9 6 0
3 0
4 10 0
3 9 0
4 10 3 6 0
4 10 3 0
6 0
3 9 4 0
6 0
4 0
6 4 0
3 9 0
6 3 0
4 10 0
3 0
4 10 3 0
4 0
6 4 0
3 9 6 0
3 9 4 0
4 3 6 9 0
6 0
4 10 6 0
6 0
4 10 3 6 0
4 10 6 0
3 9 6 0
3 9 4 0
3 9 0
6 3 0
4 3 6 9 0
4 10 3 6 0
6 4 0
3 0
4 0
6 0
6 0
4 10 0
4 10 3 0
11 1 0
11 -1 0
11 0
12 0
1 12 0
-1 12 0
12 0
15 0
15 0
15 0
4 0
3 0
3 0
6 0
4 0
4 0
6 0
3 0
3 9 0
6 0
3 9 4 0
4 10 0
4 10 3 0
6 0
4 0
3 9 0
4 10 3 0
6 0
4 10 0
3 9 4 0
3 0
3 0
6 0
4 10 3 0
3 9 4 0
4 0
6 0
3 9 0
4 10 0
6 0
4 10 0
6 0
4 10 3 0
4 0
3 0
3 9 4 0
3 9 0
4 0
3 0
6 0
11 0
11 0
11 0
11 0
6 0
3 9 4 0
3 9 0
6 0
3 0
4 10 3 0
4 10 0
4 0
4 0
6 0
3 0
4 10 0
4 10 3 0
3 0
6 0
3 9 0
6 0
3 9 4 0
4 0
6 0
3 0
4 0
1 7 0
-1 7 0
7 0
7 1 0
7 -1 0
7 0
-1 0
-1 0
15 0
15 0
15 0
15 0
3 -9 -10 0
-3 4 -10 0
-4 3 -9 0
4 -9 -10 0
3 9 1 0
4 3 1 9 0
4 10 1 0
4 10 3 1 0
4 10 3 -1 0
4 3 -1 9 0
4 10 -1 0
3 9 -1 0
3 0
4 0
13 0
15 0
13 0
15 0
15 0
13 0
13 0
15 0
15 0
13 0
15 0
13 0
15 0
13 0
15 0
15 0
13 0
13 0
15 0
13 0
5 0
13 0
5 13 14 0
13 0
13 0
13 0
5 13 0
5 0
5 14 0
5 0
5 13 14 0
13 0
5 0
5 14 0
5 13 0
13 0
13 0
5 0
5 13 0
13 0
5 13 14 0
13 0
5 0
13 0
5 0
5 14 0
5 0
5 13 0
5 13 14 0
5 14 0
13 0
5 0
13 0
13 0
5 0
13 0
11 0
-2 -16 -5 0
-14 -2 -16 0
-2 -11 -16 -5 0
-8 -16 -5 0
-14 -8 -16 0
-2 -16 -5 0
-8 -16 -5 0
-14 -2 -16 0
-2 -16 -5 0
-14 -8 -16 0
15 1 0
15 -1 0
15 0
4 10 0
4 10 3 0
4 0
3 0
3 9 4 0
6 0
3 9 0
6 0
6 0
4 0
3 0
1 11 0
-1 11 0
11 0
12 0
12 0
1 12 0
-1 12 0
12 0
1 11 0
-1 11 0
11 0
4 0
11 0
6 0
3 0
11 0
4 3 6 9 0
4 0
3 6 9 0
6 0
4 0
4 10 0
3 6 0
11 0
6 0
4 10 6 0
3 9 0
3 0
4 10 3 0
3 0
4 3 9 0
4 6 0
11 0
4 10 3 6 0
6 0
4 6 0
3 6 0
11 0
6 0
11 0
4 3 9 0
4 0
4 0
3 0
4 10 0
3 0
6 0
4 3 6 9 0
3 6 9 0
4 10 3 6 0
4 10 3 0
11 0
3 9 0
6 0
4 10 6 0
4 0
4 0
11 0
4 3 9 0
3 6 9 0
3 0
11 0
3 9 0
4 3 6 9 0
4 10 3 0
4 10 0
4 10 3 6 0
6 0
3 6 0
6 0
4 10 6 0
11 0
6 0
4 6 0
3 0
3 0
4 3 9 0
4 0
4 10 3 6 0
4 3 6 9 0
4 10 6 0
4 10 3 0
4 6 0
4 0
11 0
11 0
4 10 0
3 9 0
3 0
6 0
6 0
3 6 0
6 0
3 6 9 0
11 0
11 1 0
11 -1 0
11 0
4 0
6 0
3 0
4 10 0
3 9 0
6 0
6 0
3 0
4 10 3 0
4 0
3 9 4 0
6 0
3 9 4 0
3 9 0
6 0
3 0
4 0
4 10 0
4 10 3 0
3 9 0
6 0
6 0
3 0
4 0
3 9 4 0
4 10 0
4 10 3 0
4 10 3 0
3 9 0
4 0
3 0
6 0
6 0
4 10 0
3 9 4 0
11 6 0
4 0
6 3 0
3 0
6 0
11 4 0
3 4 0
4 0
6 0
3 0
6 4 0
11 3 0
11 12 1 0
12 1 0
11 1 0
11 -1 0
12 -1 0
11 12 -1 0
12 0
11 0
1 15 0
-1 15 0
15 0
11 0
11 0
11 0
12 0
11 0
12 0
11 0
11 0
11 0
11 0
11 0
12 0
11 0
11 0
12 0
11 0
12 0
11 0
11 0
11 0
13 1 0
13 -1 0
13 0
7 0
7 0
3 9 0
4 10 6 0
3 9 4 0
4 3 6 9 0
6 0
4 10 3 0
4 10 0
6 4 0
3 9 6 0
6 3 0
4 10 3 6 0
3 9 0
6 0
4 10 6 0
3 9 6 0
4 10 3 0
6 4 0
6 3 0
4 10 0
4 10 3 6 0
3 9 4 0
4 3 6 9 0
6 -1 0
4 -1 0
4 6 -1 0
6 -1 0
3 -1 0
4 -1 0
3 -1 0
4 3 -1 0
3 6 -1 0
4 3 6 9 0
4 10 0
4 10 0
3 9 6 0
3 0
3 9 0
4 0
4 10 6 0
3 9 4 0
6 0
6 4 0
6 3 0
4 10 3 0
4 10 3 6 0
3 9 4 0
6 0
6 0
4 10 3 0
3 9 0
4 0
6 0
3 0
6 0
3 0
4 0
7 0
7 0
7 0
7 0
7 0
7 0
7 0
7 0
7 0
4 -9 -10 0
-3 4 -10 0
-4 3 -9 0
3 -9 -10 0
3 9 1 0
4 10 1 0
4 3 1 9 0
4 10 3 1 0
3 9 -1 0
4 10 3 -1 0
4 3 -1 9 0
4 10 -1 0
3 0
4 0
7 1 0
7 -1 0
7 0
1 11 0
-1 11 0
11 0
15 1 0
15 -1 0
15 0
1 12 0
-1 12 0
12 0
7 1 0
7 -1 0
7 0
1 15 0
-1 15 0
15 0
5 0
5 0
5 14 0
5 0
5 14 0
5 0
5 0
5 0
5 0
5 14 0
5 14 0
5 0
5 0
4 0
4 10 0
3 9 4 0
6 0
4 10 3 0
6 0
3 0
3 9 0
6 0
4 0
3 0
15 1 0
15 -1 0
15 0
15 0
15 0
15 0
15 0
15 0
15 0
15 0
15 0
15 0
15 0
11 0
11 0
11 0
11 0
11 0
11 0
11 0
11 0
15 0
15 0
15 0
15 0
15 -1 0
15 0
3 0
3 9 0
3 0
3 9 0
12 0
12 0
15 0
7 0
7 0
12 0
11 0
12 0
11 0
11 0
7 0
11 0
7 0
11 0
11 0
11 0
12 0
11 0
11 0
11 0
12 0
12 0
12 0
12 0
11 0
12 0
12 0
12 0
11 0
12 0
12 0
11 0
12 0
7 0
12 0
12 0
12 0
7 0
11 0
12 0
11 0
11 0
11 0
11 0
11 0
12 0
7 0
11 0
7 0
11 0
12 0
12 0
15 0
11 0
12 0
11 0
12 0
11 0
12 0
12 0
12 0
7 0
11 0
12 0
12 0
7 0
12 0
12 0
11 0
11 0
11 0
7 0
11 0
15 0
12 0
11 0
7 0
12 0
11 0
11 0
12 0
12 0
7 0
12 0
11 0
12 0
11 0
11 0
7 0
12 0
11 0
12 0
12 0
7 0
12 0
7 0
11 0
11 0
11 0
15 0
12 0
11 0
11 0
11 0
12 0
12 0
11 0
11 0
12 0
7 0
12 0
12 0
12 0
7 0
12 0
12 0
11 0
11 0
12 0
11 0
11 0
7 0
11 0
15 0
12 0
11 0
12 0
12 0
7 0
11 0
12 0
7 15 0
1 15 0
-1 15 0
15 0
3 9 0
6 0
6 0
4 10 3 0
4 10 0
3 9 4 0
3 0
4 0
3 0
4 0
6 0
11 0
11 0
11 0
15 0
15 0
6 0
4 0
3 0
6 0
4 10 3 0
3 9 0
3 9 4 0
4 0
6 0
3 0
4 10 0
3 9 0
4 10 0
4 0
4 10 3 0
6 0
3 9 4 0
3 0
6 0
3 9 0
3 0
6 0
4 10 3 0
4 0
4 10 0
6 0
3 9 4 0
6 0
3 9 4 0
4 0
3 9 0
4 10 0
4 10 3 0
6 0
3 0
1 15 0
-1 15 0
15 0
15 0
15 0
7 0
15 0
7 0
15 0
15 0
7 0
15 0
15 0
15 0
15 0
7 0
7 0
15 0
7 0
15 0
7 0
15 0
15 0
7 0
7 0
15 0
15 0
7 0
15 0
15 0
15 0
15 0
15 0
15 -1 0
15 0
15 0
15 0
15 0
15 0
15 0
15 0
-8 2 0
2 8 1 0
2 8 -1 0
2 0
3 0
2 0
6 0
4 0
4 0
6 0
2 0
3 0
-1 0
6 0
3 0
4 0
2 0
12 0
12 0
12 0
12 0
12 0
12 0
12 0
12 0
12 0
11 0
11 0
12 0
11 0
12 0
12 0
11 12 0
11 0
12 0
12 0
11 12 0
11 12 0
11 0
11 0
12 0
12 0
11 0
12 0
11 12 0
12 0
11 0
12 0
12 0
11 0
12 0
11 0
11 0
12 0
12 0
12 0
11 0
12 0
12 0
12 0
11 12 0
12 0
11 0
11 0
11 12 0
12 0
11 0
11 0
11 0
11 0
12 0
12 0
12 0
12 0
12 0
15 0
15 0
12 0
12 0
12 0
12 0
12 0
12 0
12 0
12 0
12 0
12 0
12 0
12 0
12 0
12 0
12 0
12 0
12 0
12 0
12 0
12 0
12 0
12 0
12 0
12 0
12 0
12 0
12 0
12 0
12 0
12 0
12 0
12 0
12 0
12 0
12 0
12 0
12 0
12 0
12 0
12 0
12 0
12 0
12 0
1 7 0
-1 7 0
7 0
13 1 0
13 -1 0
13 0
-14 -2 -16 0
-8 -16 -5 0
-2 -16 -5 0
-2 -16 -5 0
-2 -11 -16 -5 0
-14 -8 -16 0
-2 -16 -5 0
-14 -2 -16 0
-8 -16 -5 0
-14 -8 -16 0
11 0
11 0
11 0
11 0
11 0
11 0
11 0
11 0
11 0
11 0
7 0
7 0
1 11 0
1 7 0
-1 11 0
-1 7 0
11 0
7 0
15 1 0
-1 15 0
15 0
1 12 0
-1 12 0
12 0
15 1 0
-1 15 0
15 0
5 0
13 0
13 0
13 0
5 0
13 0
5 14 0
5 13 14 0
5 13 0
5 0
5 13 0
5 13 14 0
13 0
5 14 0
5 0
13 0
5 0
13 0
13 0
5 0
5 13 0
13 0
5 14 0
5 13 14 0
5 0
13 0
5 0
5 0
13 0
5 13 0
13 0
13 0
5 14 0
5 13 14 0
5 0
13 0
1 12 0
1 11 0
-1 12 0
-1 11 0
12 0
11 0
15 0
5 14 0
5 0
5 0
1 15 0
-1 15 0
15 0
15 0
15 0
15 0
15 0
15 0
15 0
15 0
15 -1 0
15 0
1 11 0
-1 11 0
11 0
1 12 0
-1 12 0
12 0
4 0
3 0
6 0
3 9 0
6 4 0
3 9 6 0
6 0
4 0
4 3 6 9 0
4 10 3 0
4 10 6 0
3 0
4 10 0
6 3 0
4 10 3 6 0
6 0
3 9 4 0
4 10 6 0
6 4 0
4 10 3 0
6 0
3 9 6 0
6 0
4 10 0
4 0
3 9 0
6 3 0
3 9 4 0
4 3 6 9 0
4 10 3 6 0
3 0
4 3 6 9 0
6 3 0
4 10 6 0
3 9 6 0
6 0
3 0
4 10 3 0
6 0
3 9 0
6 4 0
4 10 3 6 0
3 9 4 0
4 0
4 10 0
6 3 0
4 10 3 6 0
3 9 0
6 0
3 9 6 0
4 10 3 0
6 0
3 0
4 10 6 0
6 4 0
3 9 4 0
4 10 0
4 0
4 3 6 9 0
3 0
6 0
4 0
1 7 0
-1 7 0
7 0
11 0
11 0
11 0
11 0
11 0
11 0
11 0
11 0
11 0
11 0
11 0
11 0
13 0
13 0
13 0
13 0
13 0
13 0
13 0
13 0
13 0
13 0
1 7 0
-1 7 0
7 0
1 12 0
-1 12 0
12 0
-4 3 -9 0
-3 4 -10 0
4 -9 -10 0
3 -9 -10 0
3 9 0
4 0
3 9 4 0
4 10 3 0
3 0
4 10 0
3 9 4 0
3 9 0
4 10 0
4 0
4 10 3 0
3 0
3 9 0
4 10 0
3 0
4 0
3 9 4 0
4 10 3 0
3 9 0
3 9 4 0
3 0
4 10 0
4 0
4 10 3 0
3 0
4 0
15 1 0
15 -1 0
15 0
1 11 0
-1 11 0
11 0
11 0
13 1 0
13 -1 0
13 0
7 0
7 0
11 0
11 5 0
11 0
5 0
5 14 0
7 0
5 11 14 0
7 0
12 0
7 0
12 0
12 0
7 0
12 0
12 7 0
12 0
7 0
7 0
7 0
12 0
7 0
7 0
12 0
12 0
12 0
7 0
7 0
7 0
12 0
12 0
7 0
12 0
12 0
12 7 0
7 0
7 0
7 0
12 0
7 0
15 0
15 0
15 0
4 10 0
6 0
3 9 0
3 0
6 0
4 10 3 0
4 0
3 9 4 0
6 0
4 0
3 0
5 0
13 0
5 14 0
13 0
5 0
13 0
5 0
5 13 0
5 13 14 0
13 0
5 0
5 0
13 0
5 13 0
5 13 14 0
5 14 0
13 0
13 0
5 13 0
13 0
13 0
5 14 0
5 0
5 13 14 0
5 0
13 0
13 0
5 13 14 0
13 0
13 0
5 14 0
5 0
5 0
5 13 0
13 0
5 0
7 0
7 0
7 0
7 0
7 0
7 0
7 0
7 0
7 0
4 10 0
6 0
3 0
6 0
4 0
3 9 4 0
3 9 0
4 10 3 0
3 0
6 0
4 0
15 1 0
15 -1 0
15 0
11 0
11 0
11 0
11 0
11 0
11 0
11 0
11 0
11 0
11 0
1 7 0
-1 7 0
7 0
15 0
15 0
15 0
15 0
3 9 4 0
3 0
4 10 0
4 10 3 0
6 0
4 0
3 9 0
6 0
3 0
6 0
4 0
11 0
11 0
11 0
11 0
11 0
11 0
11 0
11 0
11 0
11 0
11 0
11 0
11 0
11 0
11 0
11 0
11 0
11 0
11 0
11 0
11 0
11 0
11 0
11 0
11 0
11 0
11 0
11 0
11 0
11 0
11 0
11 0
11 0
11 0
11 0
11 0
11 0
11 0
11 0
11 0
11 0
11 0
11 0
11 0
5 0
13 0
13 0
5 14 0
5 13 14 0
5 0
13 0
5 0
5 13 0
13 0
13 0
5 13 0
5 14 0
5 0
5 0
13 0
13 0
5 13 14 0
5 13 14 0
5 13 0
13 0
13 0
5 0
13 0
5 0
5 14 0
5 0
5 13 0
5 0
13 0
5 14 0
5 13 14 0
13 0
13 0
13 0
5 0
15 1 0
15 -1 0
15 0
11 1 0
11 -1 0
11 0
1 11 0
-1 11 0
11 0
11 0
11 0
11 0
11 0
13 0
13 0
13 0
13 0
13 0
13 0
13 0
13 0
15 1 0
15 -1 0
15 0
11 1 0
11 -1 0
11 0
15 0
15 0
15 0
15 0
15 0
15 0
15 0
15 0
15 0
15 0
15 0
15 0
15 0
15 0
15 0
15 0
15 0
15 0
15 0
15 0
15 0
15 0
15 0
15 0
15 0
15 0
15 0
15 0
15 0
15 0
15 0
15 0
15 0
15 0
15 0
15 0
15 0
15 0
15 0
15 0
7 0
7 0
3 0
4 10 0
6 0
6 0
4 10 3 0
4 0
3 9 4 0
3 9 0
3 0
6 0
4 0
13 1 0
13 -1 0
13 0
15 0
15 0
12 0
12 0
12 0
12 0
12 0
12 0
12 0
12 0
12 0
15 1 0
15 -1 0
15 0
7 1 0
7 -1 0
7 0
7 1 0
7 -1 0
7 0
4 0
3 0
2 0
6 0
4 10 0
3 9 6 0
2 8 0
3 9 0
6 3 0
4 3 6 9 0
3 9 4 0
4 10 6 0
4 10 3 6 0
6 0
4 10 3 0
6 4 0
-1 0
6 0
3 0
2 0
4 0
12 0
2 -8 0
12 1 0
2 -8 12 1 0
12 -1 0
2 -8 12 -1 0
12 0
2 -8 0
7 0
7 0
7 0
7 0
13 0
13 0
13 0
13 0
5 0
13 0
13 0
5 13 14 0
5 14 0
5 0
5 13 0
13 0
13 0
5 0
5 13 14 0
5 13 0
5 14 0
13 0
5 0
13 0
13 0
5 0
5 0
5 14 0
5 13 0
13 0
13 0
5 0
13 0
5 13 14 0
13 0
5 13 14 0
5 13 0
13 0
13 0
5 14 0
5 0
5 0
5 0
13 0
15 1 0
15 -1 0
15 0
4 0
3 0
3 9 0
6 0
4 10 3 0
3 9 4 0
6 0
4 10 0
6 0
4 0
3 0
1 12 0
-1 12 0
12 0
11 0
11 0
11 0
11 0
13 0
11 0
11 0
11 0
13 0
11 0
11 1 0
11 -1 0
11 0
5 0
11 0
11 0
5 14 0
11 0
11 0
1 7 0
-1 7 0
7 0
11 0
11 0
15 1 0
15 -1 0
15 0
12 0
12 0
12 0
12 0
12 0
12 0
12 0
12 0
12 0
12 0
12 0
12 0
1 12 0
-1 12 0
12 0
15 0
15 0
11 1 0
11 -1 0
11 0
1 15 0
-1 15 0
15 0
7 0
7 0
7 0
7 0
7 0
7 0
7 0
7 0
7 0
7 0
7 0
7 0
7 0
7 0
7 0
7 0
7 0
7 0
7 0
7 0
7 0
7 0
7 0
7 0
7 0
7 0
7 0
7 0
7 0
7 0
7 0
7 0
7 0
7 0
7 0
7 0
7 0
7 0
7 0
7 0
7 0
7 0
7 0
6 0
3 0
4 0
3 0
3 9 0
6 0
4 0
4 10 0
3 9 4 0
4 10 3 0
6 0
3 9 4 0
4 10 3 0
3 0
6 0
6 0
4 0
4 10 0
3 9 0
6 0
4 10 3 0
6 0
3 9 4 0
3 0
4 10 0
4 0
3 9 0
6 0
3 9 4 0
6 0
3 0
4 0
4 10 0
3 9 0
4 10 3 0
6 0
3 0
4 0
1 11 0
-1 11 0
11 0
12 0
12 0
12 0
12 0
12 0
12 0
12 0
12 0
12 0
12 0
12 0
7 1 0
12 7 1 0
12 1 0
12 7 -1 0
12 -1 0
7 -1 0
7 0
12 0
1 12 0
1 11 0
-1 12 0
-1 11 0
12 0
11 0
15 1 0
15 -1 0
15 0
1 11 0
-1 11 0
11 0
12 1 0
12 -1 0
12 0
-8 0
12 0
2 0
2 0
-8 0
-8 0
2 0
-8 0
2 0
2 0
2 8 0
2 0
2 0
-8 0
12 0
-8 0
2 0
2 8 0
-8 0
2 0
-8 0
2 0
2 0
2 0
-8 0
12 0
-8 0
2 0
2 8 0
-8 0
2 0
-8 0
2 0
12 0
12 0
12 0
12 0
11 1 0
11 -1 0
11 0
3 0
3 9 0
6 0
4 10 0
6 0
4 0
4 10 3 0
3 9 4 0
4 0
6 0
3 0
15 0
15 0
7 0
7 0
1 15 0
-1 15 0
15 0
15 1 0
15 -1 0
15 0
11 1 0
11 -1 0
11 0
7 0
7 0
7 0
7 0
7 0
7 0
7 0
7 0
7 0
12 1 0
12 -1 0
12 0
4 10 3 0
3 9 4 0
4 0
6 0
3 0
6 0
4 10 0
3 9 0
7 1 0
7 -1 0
7 0
15 1 0
15 -1 0
15 0
15 0
1 15 0
-1 15 0
15 0
6 0
6 0
3 0
4 0
4 10 3 0
3 9 4 0
3 9 0
4 10 0
6 0
3 0
4 0
12 0
7 0
7 0
12 0
7 0
12 0
7 0
12 0
7 0
12 0
7 0
7 0
7 0
7 0
7 0
12 0
12 0
7 0
12 0
7 0
12 0
7 0
7 0
12 0
15 0
15 0
1 7 0
-1 7 0
7 0
12 0
2 8 0
11 0
11 0
1 11 0
-1 11 0
11 0
15 0
15 0
4 -9 -10 0
-3 4 -10 0
-4 3 -9 0
3 -9 -10 0
3 9 1 0
4 10 3 1 0
4 3 1 9 0
4 10 1 0
4 10 -1 0
4 3 -1 9 0
3 9 -1 0
4 10 3 -1 0
3 0
4 0
5 0
13 0
5 0
13 0
13 0
13 0
5 14 0
5 13 0
5 13 14 0
5 0
13 0
5 14 0
5 13 14 0
5 13 0
13 0
5 0
5 0
13 0
5 13 0
13 0
5 13 14 0
5 0
13 0
5 14 0
13 0
5 0
13 0
13 0
5 0
5 13 0
5 0
13 0
5 13 14 0
5 14 0
5 0
13 0
15 1 0
15 -1 0
15 0
1 11 0
-1 11 0
11 0
1 12 0
1 11 0
-1 12 0
-1 11 0
12 0
11 0
12 1 0
12 -1 0
12 0
4 -9 -10 0
-4 3 -9 0
3 -9 -10 0
-3 4 -10 0
4 10 3 1 0
4 10 1 0
4 3 1 9 0
3 9 1 0
4 10 -1 0
4 3 -1 9 0
3 9 -1 0
4 10 3 -1 0
3 0
4 0
3 0
4 0
4 10 3 0
4 0
3 9 4 0
4 10 0
3 9 0
3 0
4 10 0
4 0
3 0
3 9 4 0
4 10 3 0
3 9 0
4 10 0
3 9 4 0
3 9 0
4 10 3 0
4 0
3 0
4 10 3 0
3 0
4 10 0
3 9 0
3 9 4 0
4 0
3 0
4 0
3 0
4 0
4 10 0
4 10 3 0
4 0
3 9 4 0
3 0
3 9 0
3 9 0
4 10 3 0
3 0
4 0
3 9 4 0
4 10 0
4 10 0
4 0
3 0
3 9 0
3 9 4 0
4 10 3 0
3 9 4 0
4 0
4 10 3 0
4 10 0
3 0
3 9 0
3 0
4 0
15 0
15 0
12 0
12 0
1 7 0
-1 7 0
7 0
5 0
13 0
5 14 0
13 0
5 0
13 0
5 13 14 0
5 13 0
5 0
13 0
13 0
5 14 0
5 0
13 0
5 13 0
5 13 14 0
13 0
5 0
5 13 0
5 0
13 0
5 14 0
13 0
5 0
5 13 14 0
13 0
5 13 14 0
13 0
5 0
13 0
13 0
5 14 0
5 0
5 13 0
13 0
5 0
12 0
7 0
12 0
12 0
12 0
7 0
12 0
12 0
7 0
12 0
12 7 0
7 0
12 7 0
7 0
7 0
12 7 0
12 0
12 7 0
7 0
12 0
7 0
7 0
7 0
12 0
12 0
12 0
12 0
7 0
7 0
12 7 0
7 0
7 0
12 7 0
12 0
12 0
7 0
12 0
12 7 0
7 0
12 0
12 0
12 0
12 0
12 7 0
15 1 0
15 -1 0
15 0
1 11 0
-1 11 0
11 0
1 12 0
-1 12 0
12 0
11 0
-16 -5 0
-14 -16 0
1 11 0
-1 11 0
11 0
6 0
4 0
3 9 4 0
3 0
4 10 0
6 0
3 9 0
4 10 3 0
4 0
6 0
3 0
15 1 0
13 1 0
13 15 1 0
15 13 1 0
13 15 -1 0
13 -1 0
15 13 -1 0
15 -1 0
13 0
15 0
5 14 0
5 14 0
5 14 0
5 14 0
5 14 0
5 14 0
5 0
5 0
5 0
5 14 0
5 14 0
5 14 0
5 0
5 0
5 0
3 0
11 0
2 0
6 0
4 0
6 0
4 0
2 0
11 0
3 0
-1 0
2 0
3 0
6 0
11 0
4 0
5 0
13 0
13 0
5 13 14 0
13 0
5 0
5 0
5 13 0
5 14 0
13 0
5 13 0
5 14 0
5 13 14 0
13 0
13 0
5 0
13 0
5 0
13 0
5 14 0
13 0
5 0
5 13 0
13 0
5 0
5 13 14 0
5 14 0
13 0
5 13 14 0
5 0
13 0
13 0
5 0
5 13 0
13 0
5 0
7 1 0
7 -1 0
7 0
11 0
11 0
11 1 0
11 -1 0
11 0
15 0
15 0
13 0
5 0
5 13 0
13 0
5 0
5 13 14 0
5 0
13 0
13 0
5 14 0
5 14 0
13 0
5 13 0
13 0
5 0
5 13 14 0
13 0
5 0
13 0
5 0
13 0
5 0
5 13 0
5 13 14 0
5 14 0
13 0
13 0
5 14 0
13 0
5 0
5 13 0
13 0
5 13 14 0
5 0
13 0
5 0
12 0
12 0
12 0
12 0
12 0
12 0
7 0
7 0
7 0
7 0
7 0
7 0
7 0
7 0
7 0
7 0
11 0
11 0
11 0
11 0
11 0
3 -9 -10 0
4 -9 -10 0
-3 4 -10 0
-4 3 -9 0
4 3 1 9 0
4 10 1 0
3 9 1 0
4 10 3 1 0
4 3 -1 9 0
4 10 -1 0
3 9 -1 0
4 10 3 -1 0
3 0
4 0
11 0
11 0
15 0
15 0
15 0
15 0
2 8 0
2 8 0
15 0
15 0
15 0
15 0
15 0
15 0
15 0
15 0
15 0
15 0
15 0
15 0
15 0
15 0
15 0
15 0
15 0
15 0
15 0
15 0
15 0
15 0
15 0
15 0
15 0
15 0
15 0
15 0
15 0
15 0
15 0
15 0
15 0
15 0
15 0
15 0
15 0
15 0
15 0
15 0
15 0
15 0
15 0
15 0
15 0
15 0
15 0
15 0
15 0
15 0
15 0
15 0
15 0
15 0
15 0
15 0
15 0
15 0
15 0
15 0
7 0
7 0
7 0
7 0
7 0
7 0
7 0
7 0
7 0
1 11 0
-1 11 0
11 0
4 10 3 0
3 0
4 0
4 10 0
3 9 0
3 9 4 0
3 0
4 10 3 0
3 9 0
4 10 0
3 9 4 0
4 0
3 0
4 10 3 0
3 9 0
4 10 0
3 9 4 0
4 0
11 1 0
11 -1 0
11 0
15 0
15 0
15 0
15 0
15 0
15 0
15 0
15 0
15 0
15 0
15 0
15 0
15 0
15 0
15 0
15 0
15 0
15 0
7 0
7 0
7 0
7 0
7 0
7 0
7 0
7 0
7 0
15 0
15 0
15 0
15 0
15 0
15 0
15 0
15 0
15 0
15 1 0
15 -1 0
15 0
7 0
7 0
7 0
7 0
12 0
12 0
13 1 0
13 -1 0
13 0
11 0
11 0
15 0
15 0
15 0
15 0
15 0
15 0
15 0
15 0
15 0
15 0
15 0
15 0
15 0
15 0
15 0
15 0
15 0
15 0
15 0
15 0
15 0
15 0
15 0
15 0
15 0
15 0
15 0
15 0
15 0
2 -8 0
2 -8 0
11 0
11 0
11 0
11 0
11 0
11 0
11 0
11 0
11 0
11 0
11 0
1 15 0
-1 15 0
15 0
11 1 0
11 -1 0
11 0
1 12 0
-1 12 0
12 0
11 0
11 0
11 0
11 0
11 0
11 0
11 0
11 0
11 0
7 1 0
7 1 12 0
7 -1 12 0
7 -1 0
7 0
12 7 0
15 0
15 0
15 0
15 0
15 0
15 0
15 0
7 0
7 0
11 0
11 0
11 0
11 0
11 0
11 0
11 0
11 0
11 0
11 0
11 0
11 0
11 0
11 0
11 0
11 0
11 0
15 0
15 0
1 12 0
-1 12 0
12 0
1 11 0
-1 11 0
11 0
12 0
12 0
12 0
12 0
12 0
12 0
12 0
12 0
12 0
7 0
7 0
7 0
7 0
7 0
7 0
7 0
7 0
7 0
1 7 0
-1 7 0
7 0
12 0
12 0
12 0
12 0
7 0
7 0
7 0
12 0
12 0
7 0
12 0
12 0
7 0
7 0
12 0
12 0
7 0
7 0
7 0
12 0
7 0
12 0
7 0
5 14 0
11 0
2 5 14 -8 0
12 0
12 0
4 0
3 0
4 10 3 0
3 9 0
4 10 0
3 9 4 0
4 0
3 0
4 10 3 0
3 9 0
4 10 0
3 9 4 0
6 0
3 0
4 10 3 0
4 10 0
4 0
3 9 0
3 9 4 0
6 0
6 0
3 0
4 0
12 0
11 0
12 0
11 0
2 -8 0
2 -8 0
11 1 0
11 -1 0
11 0
4 0
6 0
2 0
3 0
4 10 3 0
3 9 6 0
6 3 0
4 10 6 0
3 9 0
4 3 6 9 0
4 10 0
6 4 0
6 0
2 8 0
4 10 3 6 0
3 9 4 0
-1 0
3 0
4 0
2 0
6 0
3 9 4 0
6 0
6 0
3 9 0
4 10 0
4 10 3 0
3 0
4 0
6 0
4 0
3 0
2 8 0
2 8 0
2 0
2 -8 0
2 -8 0
2 0
2 0
2 8 0
2 -8 0
2 0
2 -8 0
2 8 0
-1 0
2 0
2 -8 0
2 -8 0
2 8 0
2 0
2 8 0
2 0
-3 4 -10 0
-4 3 -9 0
3 -9 -10 0
4 -9 -10 0
4 10 1 0
4 3 1 9 0
4 10 3 1 0
3 9 1 0
4 3 -1 9 0
4 10 -1 0
3 9 -1 0
4 10 3 -1 0
3 0
4 0
7 1 0
7 -1 0
7 0
4 10 3 0
3 9 0
3 0
6 0
6 0
4 0
4 10 0
3 9 4 0
4 0
6 0
3 0
1 15 0
-1 15 0
15 0
1 11 0
-1 11 0
11 0
3 -9 -10 0
-4 3 -9 0
-3 4 -10 0
4 -9 -10 0
4 3 1 9 0
4 10 3 1 0
3 9 1 0
4 10 1 0
4 10 3 -1 0
4 10 -1 0
3 9 -1 0
4 3 -1 9 0
3 0
4 0
11 0
11 0
11 0
11 0
11 0
11 0
11 0
11 0
11 0
11 0
11 0
11 0
11 0
15 0
15 0
15 0
15 0
15 -1 0
15 0
15 0
15 0
11 0
11 0
11 0
11 0
11 0
11 0
11 0
11 0
11 0
1 7 0
-1 7 0
7 0
15 0
15 0
1 7 0
-1 7 0
7 0
2 8 0
2 8 0
13 1 0
13 -1 0
13 0
15 1 0
15 -1 0
15 0
-1 0
5 0
13 0
5 13 14 0
13 0
13 0
5 14 0
5 13 0
5 0
5 0
13 0
5 0
5 14 0
5 13 0
13 0
13 0
5 0
13 0
5 13 14 0
13 0
13 0
5 0
5 0
5 14 0
13 0
5 13 14 0
5 13 0
5 0
5 0
13 0
5 13 14 0
5 14 0
13 0
13 0
5 13 0
5 0
13 0
12 0
15 0
11 0
12 0
15 0
15 0
12 0
11 0
11 0
12 0
11 0
11 0
12 0
15 0
15 0
11 0
12 0
12 0
11 0
15 0
15 0
11 0
12 0
11 0
15 0
12 0
15 0
15 0
12 0
11 0
1 11 0
-1 11 0
11 0
15 1 0
15 -1 0
15 0
12 0
12 0
13 0
5 0
13 0
5 14 0
13 0
5 13 14 0
13 0
5 0
5 13 0
5 0
5 0
5 13 0
13 0
5 0
5 14 0
13 0
5 13 14 0
13 0
5 0
13 0
5 0
5 13 0
5 14 0
13 0
5 13 14 0
13 0
13 0
5 13 14 0
5 13 0
5 0
5 0
13 0
13 0
5 14 0
5 0
13 0
12 0
11 0
3 9 6 0
4 10 3 0
12 0
6 0
4 10 0
4 6 0
11 0
4 10 3 0
4 10 6 0
4 10 0
4 3 9 0
6 0
3 9 6 0
4 3 6 9 0
3 9 0
4 3 6 9 0
11 0
12 0
12 0
11 0
4 0
4 10 3 0
6 4 0
12 0
6 3 0
11 0
11 0
6 3 0
4 10 6 0
3 9 4 0
12 0
11 0
4 10 3 6 0
11 0
12 0
4 3 6 9 0
4 0
3 6 9 0
3 9 6 0
4 10 3 0
3 0
11 0
3 9 4 0
6 3 0
5 14 0
6 0
11 0
11 0
11 5 0
11 0
3 9 0
12 0
12 0
11 0
11 0
11 0
12 0
3 6 0
5 14 11 0
11 0
6 0
12 0
3 9 0
6 4 0
11 0
11 0
12 0
11 0
11 0
11 0
4 10 3 6 0
3 9 4 0
4 10 3 6 0
4 3 6 9 0
12 0
4 10 6 0
11 0
6 0
11 0
6 0
11 0
3 0
4 10 0
11 0
11 0
6 4 0
4 10 3 6 0
12 0
12 0
4 10 6 0
11 0
3 9 0
4 10 0
4 3 6 9 0
3 9 6 0
12 0
4 10 0
3 9 0
3 9 4 0
6 0
11 0
12 0
3 6 9 0
12 0
4 10 3 0
3 9 6 0
11 0
11 0
11 5 0
12 0
12 0
3 9 4 0
6 3 0
12 0
11 0
3 0
11 0
4 10 3 6 0
11 0
4 3 9 0
4 10 6 0
11 0
6 3 0
4 10 3 6 0
11 0
6 3 0
12 0
6 0
11 0
4 10 0
12 0
4 10 3 0
11 0
4 10 3 6 0
4 3 6 9 0
12 0
11 0
11 0
11 0
3 9 4 0
4 0
11 0
11 0
11 0
4 10 0
6 0
3 9 6 0
11 0
12 0
4 10 6 0
3 9 0
12 0
4 10 3 0
6 4 0
11 0
11 0
3 6 0
4 3 6 9 0
11 0
4 0
12 0
6 0
12 0
6 4 0
4 10 3 6 0
4 10 6 0
6 0
4 10 3 0
11 0
4 10 6 0
3 9 0
4 10 0
3 9 0
11 0
11 0
12 0
5 14 0
11 0
11 0
11 0
3 0
5 14 11 0
12 0
4 6 0
4 3 6 9 0
6 0
11 0
6 4 0
11 0
4 0
12 0
12 0
12 0
12 0
12 0
11 0
11 0
12 0
12 0
12 0
11 0
5 0
12 0
11 0
11 0
11 0
4 0
4 0
4 0
6 0
12 0
11 0
11 0
12 0
11 0
11 0
11 0
11 0
11 0
3 0
6 0
3 0
12 0
11 0
11 0
11 0
12 0
12 0
3 0
11 0
11 0
6 0
11 0
3 0
11 0
6 0
11 0
11 0
4 0
13 0
3 0
4 10 0
13 0
4 0
3 0
3 9 4 0
13 0
4 10 3 0
3 9 0
4 10 0
13 0
3 9 4 0
3 0
13 0
3 9 0
4 0
4 10 3 0
13 0
4 0
13 0
3 9 0
3 0
4 10 3 0
4 10 0
3 9 4 0
13 0
4 10 3 0
3 9 0
13 0
4 0
4 10 0
3 0
3 9 4 0
3 0
4 0
13 0
7 0
7 0
11 0
11 0
11 0
11 0
13 0
15 0
13 0
13 0
15 0
15 0
13 0
15 0
13 0
15 0
13 0
13 0
15 0
15 0
15 0
13 0
15 0
13 0
15 0
13 0
12 1 0
12 -1 0
12 0
11 0
1 11 0
1 12 0
-1 11 0
-1 12 0
11 0
12 0
7 0
7 0
7 0
7 0
7 0
7 0
7 0
7 0
7 0
15 0
15 0
15 0
15 0
15 0
15 0
15 0
15 0
15 0
7 0
7 0
7 0
7 0
7 0
7 0
7 0
7 0
7 0
7 0
7 0
7 0
7 0
7 0
7 0
7 0
7 0
7 0
7 0
12 0
12 0
12 0
12 0
12 0
12 0
12 0
12 0
12 0
4 10 0
3 0
3 9 4 0
6 0
4 10 3 0
3 9 0
6 0
4 0
6 0
4 0
3 0
7 1 0
7 -1 0
7 0
11 0
11 0
15 1 0
15 -1 0
15 0
-14 -16 0
-16 -5 0
-13 -2 -16 -5 0
11 0
15 0
15 0
15 0
15 0
15 0
15 0
15 0
11 0
11 0
11 0
11 0
11 0
11 0
11 0
11 0
11 0
15 1 0
15 -1 0
15 0
11 0
11 0
1 7 0
-1 7 0
7 0
1 15 0
-1 15 0
15 0
12 1 0
11 12 1 0
11 1 0
12 -1 0
11 12 -1 0
11 -1 0
12 0
11 0
1 12 0
1 11 0
-1 12 0
-1 11 0
12 0
11 0
7 0
7 0
7 0
7 0
7 0
7 0
7 0
7 0
7 0
11 0
11 0
11 0
12 0
12 0
11 0
11 0
11 0
11 -1 0
11 -1 12 0
11 0
11 0
11 0
12 0
11 12 0
11 0
-16 -5 0
-14 -16 0
12 1 0
12 -1 0
12 0
4 10 0
4 10 3 6 0
6 0
3 0
3 9 0
3 6 9 0
4 6 0
4 10 6 0
4 10 3 0
3 6 0
4 0
4 3 9 0
6 0
4 3 6 9 0
4 10 3 6 0
3 6 9 0
3 6 0
3 9 0
4 10 3 0
3 0
4 10 6 0
4 3 9 0
4 0
6 0
4 10 0
4 6 0
6 0
4 3 6 9 0
6 0
3 0
4 0
3 9 0
3 0
6 0
4 10 3 0
4 0
4 3 9 0
6 0
4 10 3 6 0
3 9 4 0
3 6 0
6 0
3 0
4 0
4 3 6 9 0
6 0
4 10 6 0
4 10 0
4 6 0
4 10 0
3 9 0
4 10 3 0
3 6 9 0
6 0
6 0
3 0
3 0
4 0
4 0
13 15 1 0
15 13 1 0
15 1 0
13 1 0
15 13 -1 0
13 -1 0
15 -1 0
13 15 -1 0
15 0
13 0
15 0
15 0
11 0
5 0
5 0
11 0
5 14 0
11 0
11 0
11 0
11 0
5 14 0
11 0
5 0
5 0
11 0
11 0
5 14 0
11 0
11 0
5 14 0
5 0
11 0
11 0
7 0
7 0
7 0
7 0
7 0
7 0
7 0
7 0
7 0
-8 -16 -5 0
-14 -8 -16 0
-14 -2 -16 0
-2 -16 -5 0
-2 -16 -5 0
-2 -11 -16 -5 0
-14 -8 -16 0
-8 -16 -5 0
-2 -16 -5 0
-14 -2 -16 0
15 0
13 0
7 0
15 0
13 0
7 0
15 0
13 0
7 0
15 0
13 0
7 0
1 15 0
-1 15 0
15 0
15 0
15 0
6 0
4 0
3 0
3 9 6 0
4 10 6 0
6 4 0
4 10 3 6 0
3 0
4 10 3 0
4 10 0
6 3 0
6 0
4 0
4 3 6 9 0
6 0
3 9 4 0
3 9 0
3 9 6 0
6 0
4 0
6 4 0
6 0
3 9 4 0
4 10 3 6 0
4 3 6 9 0
3 9 0
4 10 0
4 10 3 0
4 10 6 0
3 0
6 3 0
4 3 6 9 0
6 0
6 4 0
4 10 0
6 3 0
3 0
3 9 0
3 9 4 0
3 9 6 0
4 10 3 0
6 0
4 0
4 10 6 0
4 10 3 6 0
4 3 6 9 0
3 9 6 0
6 0
4 10 3 6 0
4 10 3 0
3 9 4 0
3 9 0
6 0
6 4 0
4 10 6 0
3 0
4 0
6 3 0
4 10 0
4 0
3 0
6 0
-4 3 -9 0
-3 4 -10 0
4 -9 -10 0
3 -9 -10 0
3 9 4 0
4 0
3 0
4 10 0
4 10 3 0
3 9 0
3 0
4 10 3 0
4 0
4 10 0
3 9 0
3 9 4 0
4 10 3 0
4 0
4 10 0
3 9 0
3 9 4 0
3 0
3 0
4 10 3 0
4 0
4 10 0
3 9 4 0
3 9 0
3 0
4 0
7 0
7 0
7 0
7 0
7 0
7 0
7 0
7 0
7 0
7 0
7 0
7 0
7 0
7 0
7 0
7 0
7 0
7 0
7 0
7 0
7 0
7 0
7 0
7 0
6 0
3 0
4 10 0
4 0
4 10 3 0
3 9 4 0
3 9 0
6 0
13 1 0
13 -1 0
13 0
7 0
7 0
7 0
7 0
7 0
7 0
7 0
7 0
7 0
12 0
12 0
12 0
12 0
12 0
12 0
12 0
12 0
12 0
1 11 0
-1 11 0
11 0
6 4 0
4 10 0
3 9 4 0
4 10 3 6 0
3 9 0
4 10 6 0
6 0
4 10 3 0
4 3 6 9 0
6 3 0
6 0
3 9 6 0
4 0
3 0
4 0
6 0
3 0
7 0
7 0
7 0
7 0
7 0
7 0
7 0
7 0
12 0
12 0
12 0
12 0
12 0
12 0
12 0
12 0
12 0
15 0
15 0
12 1 0
12 -1 0
12 0
1 11 0
1 15 0
-1 11 0
-1 15 0
11 0
15 0
11 0
11 0
12 0
12 0
13 0
13 0
13 0
13 0
13 0
13 0
13 0
13 0
13 0
13 0
1 11 0
-1 11 0
11 0
7 0
7 0
7 0
7 0
7 0
7 0
7 0
7 0
7 0
15 0
15 0
15 0
15 0
12 0
11 0
12 0
11 0
12 0
12 0
11 0
11 0
12 0
11 0
12 0
11 0
12 0
11 0
11 0
12 0
11 0
12 0
2 0
5 0
2 8 0
5 14 0
2 0
5 0
2 0
2 0
5 14 0
2 8 0
5 14 0
2 0
5 0
2 8 0
2 0
2 8 0
5 14 0
2 0
11 0
1 11 0
-1 11 0
11 0
11 0
13 0
5 0
5 0
13 0
13 0
5 14 0
13 0
5 0
5 13 0
5 13 14 0
5 13 0
5 14 0
13 0
5 13 14 0
5 0
5 0
13 0
13 0
5 13 0
13 0
5 0
13 0
5 14 0
5 13 14 0
13 0
5 0
13 0
5 13 0
13 0
5 0
13 0
5 14 0
5 13 14 0
5 0
5 0
13 0
11 1 0
11 -1 0
11 0
15 0
7 0
7 0
7 0
7 0
2 -8 0
2 0
-8 0
2 -8 0
2 0
2 -8 0
2 -8 0
-8 0
-8 0
2 -8 0
2 0
2 -8 0
2 0
2 -8 0
2 -8 0
2 -8 0
-8 0
-8 0
2 -8 0
2 0
2 -8 0
2 -8 0
-8 0
2 0
11 0
11 0
11 0
11 0
11 0
11 0
11 0
11 0
11 0
11 0
7 1 0
12 7 1 0
12 1 0
7 -1 0
12 -1 0
12 7 -1 0
7 0
12 0
1 11 0
-1 11 0
11 0
7 0
7 0
7 0
7 0
7 0
7 0
7 0
7 0
13 0
13 0
13 0
13 0
13 0
13 0
13 0
13 0
13 0
13 0
11 0
11 0
11 0
11 0
11 0
11 0
11 0
11 0
11 0
11 0
11 0
11 0
11 0
11 0
15 0
15 0
15 0
15 0
15 0
15 0
15 0
15 0
15 0
15 0
7 1 0
7 -1 0
7 0
12 0
12 0
4 -10 0
4 10 1 0
4 10 -1 0
4 0
5 14 0
11 0
11 0
5 0
5 14 0
11 0
11 0
11 0
11 0
11 0
5 14 0
5 0
5 0
11 0
11 0
5 14 0
5 0
11 0
11 0
5 0
11 0
5 14 0
5 14 0
11 0
11 0
5 0
11 0
5 0
5 14 0
11 0
5 0
11 0
11 0
5 14 0
5 0
5 0
5 0
11 0
11 0
11 0
5 0
11 0
5 0
5 0
11 0
5 0
5 14 0
11 0
11 0
5 0
11 0
5 14 0
5 14 0
11 0
11 0
11 0
5 14 0
11 0
5 0
11 0
11 0
5 0
5 0
11 0
5 0
12 0
12 0
12 0
12 0
12 0
12 0
12 0
12 0
12 0
1 7 0
-1 7 0
7 0
15 0
15 0
15 0
15 0
15 0
15 0
15 0
15 0
15 0
15 0
4 0
3 0
4 10 3 0
3 9 0
13 0
13 0
4 10 0
13 0
4 3 9 0
4 0
4 10 3 0
3 0
4 3 9 0
4 0
4 3 9 0
3 0
4 3 9 0
13 0
4 10 3 0
4 0
4 10 0
13 0
3 9 0
3 0
4 10 0
4 10 3 0
3 9 0
13 0
13 0
3 9 0
13 0
4 10 0
13 0
4 10 3 0
3 9 0
3 0
4 10 3 0
4 10 0
4 0
4 0
13 0
13 0
4 10 0
3 0
13 0
4 3 9 0
13 0
13 0
4 0
4 0
3 0
13 0
3 0
4 10 0
4 10 3 0
4 10 3 0
3 9 0
3 9 0
13 0
4 10 0
4 3 9 0
4 3 9 0
4 3 9 0
3 9 0
3 0
4 0
4 0
3 0
3 0
4 0
4 0
3 0
13 0
13 0
13 0
13 0
4 0
3 0
3 9 0
3 9 0
13 0
3 0
13 0
3 0
4 0
13 0
3 0
3 9 4 0
3 9 0
4 10 0
4 10 3 0
13 0
4 0
4 10 3 0
4 3 9 0
3 9 0
4 0
3 0
4 3 9 0
13 0
13 0
4 3 9 0
4 10 0
13 0
4 10 3 0
13 0
3 9 0
4 3 9 0
4 10 3 0
4 10 0
13 0
4 0
4 10 3 0
13 0
4 10 0
4 10 0
13 0
4 0
3 0
3 0
3 0
3 0
4 0
13 0
13 0
13 0
4 0
3 0
4 0
13 0
4 0
-3 4 -10 0
3 -9 -10 0
4 -9 -10 0
-4 3 -9 0
4 0
4 10 3 0
3 9 4 0
3 9 0
3 0
4 10 0
3 9 0
4 0
3 9 4 0
3 0
4 10 3 0
4 10 0
3 9 4 0
3 9 0
4 10 3 0
4 0
4 10 0
3 0
4 0
4 10 3 0
4 10 0
3 9 0
3 0
3 9 4 0
3 0
4 0
13 1 0
13 -1 0
13 0
7 1 0
7 -1 0
7 0
7 0
7 0
13 0
5 0
5 0
5 14 0
13 0
13 0
5 0
5 13 0
5 13 14 0
13 0
5 13 14 0
13 0
5 14 0
5 0
13 0
13 0
5 0
5 13 0
13 0
5 0
5 14 0
13 0
5 0
5 13 0
5 13 14 0
13 0
5 0
13 0
13 0
13 0
5 0
5 14 0
5 13 14 0
5 13 0
13 0
5 0
7 0
7 0
7 0
7 0
7 0
7 0
7 0
7 0
7 0
5 0
5 14 0
5 0
13 1 0
13 -1 0
13 0
6 0
4 0
3 0
4 0
4 10 0
6 3 0
4 3 6 9 0
3 9 6 0
6 0
4 10 3 6 0
6 0
4 10 6 0
4 10 3 0
3 9 4 0
3 9 0
3 0
6 4 0
3 9 4 0
6 4 0
4 10 0
3 9 0
3 9 6 0
6 0
4 10 3 6 0
4 3 6 9 0
4 10 3 0
6 0
3 0
4 0
6 3 0
4 10 6 0
4 3 6 9 0
6 0
4 0
4 10 6 0
6 0
6 4 0
3 9 4 0
4 10 3 0
6 3 0
4 10 3 6 0
3 0
4 10 0
3 9 0
3 9 6 0
6 0
3 9 6 0
4 10 0
6 4 0
4 10 3 6 0
6 0
4 10 6 0
6 3 0
4 3 6 9 0
4 0
3 0
3 9 4 0
4 10 3 0
3 9 0
3 0
4 0
6 0
11 0
15 0
15 0
4 0
3 9 0
4 10 0
3 0
3 0
4 0
4 10 1 0
4 10 3 1 0
4 3 1 9 0
3 9 1 0
4 10 3 -1 0
4 3 -1 9 0
4 10 -1 0
3 9 -1 0
3 0
4 0
15 0
15 0
11 0
11 0
11 0
11 0
11 0
11 0
11 0
11 0
11 0
15 0
15 0
15 0
15 0
15 0
15 0
15 0
15 0
15 0
5 -14 0
5 14 0
5 0
5 0
5 14 0
5 0
5 14 0
5 0
5 14 0
5 0
2 0
3 6 0
4 6 0
6 0
2 8 0
3 6 9 0
4 3 9 0
4 10 0
6 0
4 10 6 0
3 0
4 10 3 0
4 0
3 9 0
4 3 6 9 0
4 10 3 6 0
-1 0
4 10 0
3 9 4 0
6 0
6 0
4 0
3 0
3 9 0
4 10 3 0
4 0
6 0
3 0
12 1 0
11 12 1 0
11 1 0
11 -1 0
11 12 -1 0
12 -1 0
12 0
11 0
3 0
11 0
4 0
6 0
6 3 0
4 10 0
3 9 6 0
3 0
4 0
4 10 6 0
6 4 0
4 3 6 9 0
6 0
3 9 4 0
11 0
4 10 3 6 0
6 0
4 10 3 0
3 9 0
11 0
11 0
6 3 0
3 9 0
6 0
3 9 6 0
6 4 0
4 10 3 6 0
6 0
3 0
4 10 6 0
4 3 6 9 0
3 9 4 0
4 10 3 0
11 0
4 0
4 10 0
11 0
6 3 0
4 10 3 0
6 0
4 10 0
4 10 3 6 0
4 0
3 9 0
4 10 6 0
6 0
3 9 6 0
4 3 6 9 0
6 4 0
11 0
3 0
3 9 4 0
4 0
11 0
3 9 0
4 3 6 9 0
4 10 3 6 0
4 10 6 0
3 9 4 0
11 0
6 0
6 0
4 10 0
4 10 3 0
3 9 6 0
6 4 0
3 0
6 3 0
1 11 0
-1 11 0
11 0
1 12 0
-1 12 0
12 0
7 0
7 0
11 0
11 0
11 0
11 0
15 0
15 0
15 0
15 0
11 0
11 0
11 0
11 0
15 0
15 0
11 0
11 0
15 0
11 0
11 0
11 0
11 0
15 0
11 0
15 0
11 0
15 0
6 0
3 0
4 0
4 3 6 9 0
4 10 6 0
3 0
6 4 0
3 9 6 0
3 9 0
4 10 0
6 0
4 0
4 10 3 6 0
3 9 4 0
4 10 3 0
6 0
6 3 0
4 10 6 0
4 10 3 0
4 10 0
6 0
4 3 6 9 0
3 9 0
6 0
3 0
6 4 0
6 3 0
4 10 3 6 0
3 9 6 0
4 0
3 9 4 0
3 9 0
3 0
6 4 0
6 0
3 9 6 0
3 9 4 0
4 10 3 6 0
4 10 3 0
4 0
6 3 0
4 10 0
4 3 6 9 0
6 0
4 10 6 0
4 10 0
6 0
6 3 0
6 0
4 3 6 9 0
4 10 3 0
6 4 0
4 10 6 0
3 9 0
4 0
4 10 3 6 0
3 9 4 0
3 9 6 0
3 0
4 0
6 0
3 0
4 -9 -10 0
-3 4 -10 0
3 -9 -10 0
-4 3 -9 0
3 9 1 0
4 10 3 1 0
4 3 1 9 0
4 10 1 0
3 9 -1 0
4 10 -1 0
4 3 -1 9 0
4 10 3 -1 0
3 0
4 0
7 0
7 0
7 0
7 0
7 0
7 0
15 0
7 0
15 0
7 0
12 0
12 0
13 0
13 0
12 0
12 0
12 0
12 0
13 0
12 0
12 0
13 0
12 0
13 0
12 0
15 0
15 0
7 1 0
7 -1 0
7 0
15 0
15 0
15 0
15 0
15 0
15 0
15 0
15 0
15 0
15 0
15 0
15 0
15 0
15 0
15 0
3 -9 -10 0
4 -9 -10 0
-3 4 -10 0
-4 3 -9 0
3 9 4 0
3 9 0
4 10 0
4 10 3 0
3 0
4 0
3 9 0
3 0
4 10 3 0
4 0
4 10 0
3 9 4 0
4 10 0
4 0
3 9 0
4 10 3 0
3 9 4 0
3 0
3 9 0
3 9 4 0
4 0
4 10 3 0
3 0
4 10 0
3 0
4 0
1 12 0
-1 12 0
12 0
12 0
7 0
12 0
7 0
7 0
12 0
7 0
7 0
12 0
12 0
7 0
7 0
12 0
12 0
7 0
7 0
12 0
12 0
12 0
7 0
7 0
12 0
7 0
12 0
12 0
7 0
7 0
12 0
1 15 0
-1 15 0
15 0
15 0
15 0
15 0
15 0
15 0
15 0
15 0
15 0
15 0
15 0
15 0
15 0
15 0
15 0
15 0
15 0
15 0
15 0
15 0
15 0
15 0
15 0
12 0
12 0
15 0
3 9 0
4 10 0
3 9 4 0
4 0
4 10 3 0
6 0
3 0
6 0
6 0
3 0
4 0
1 7 0
-1 7 0
7 0
15 1 0
15 -1 0
15 0
6 0
3 9 0
4 10 3 0
3 0
4 0
6 0
3 9 4 0
4 10 0
4 0
3 0
6 0
12 0
12 0
12 0
12 0
12 0
12 0
12 0
12 0
12 0
12 0
7 1 0
-1 7 0
7 0
12 0
7 0
15 0
15 0
12 0
7 0
12 0
15 0
7 0
15 0
7 0
15 0
7 0
12 0
12 0
7 0
12 0
7 0
15 0
15 0
12 0
12 0
15 0
7 0
7 0
15 0
12 0
15 0
7 0
12 0
3 0
4 0
13 0
4 10 3 0
3 0
13 0
4 10 0
3 9 4 0
13 0
4 0
3 9 0
4 10 0
4 0
3 9 0
4 10 3 0
3 9 4 0
13 0
13 0
3 0
13 0
4 10 0
3 9 4 0
4 0
3 0
4 10 3 0
13 0
3 9 0
4 0
13 0
4 10 3 0
13 0
3 0
4 10 0
3 9 0
3 9 4 0
3 0
4 0
13 0
4 10 0
3 9 4 0
4 10 3 0
4 10 3 0
4 10 3 0
3 0
4 10 0
3 0
4 10 3 0
3 9 4 0
4 10 3 0
3 9 0
3 9 0
4 0
4 10 0
4 3 9 0
4 10 0
3 9 0
3 9 0
4 3 9 0
4 0
3 9 0
4 10 0
3 9 4 0
3 9 0
3 0
4 10 3 0
3 9 0
4 10 0
4 10 0
4 3 9 0
3 0
4 10 0
4 3 9 0
3 9 4 0
4 10 3 0
3 9 4 0
4 0
3 9 4 0
4 10 3 0
3 9 0
4 0
3 9 0
4 10 3 0
4 10 0
4 10 0
3 9 0
4 10 3 0
3 0
4 0
4 0
3 0
3 0
4 0
4 0
4 0
3 0
3 0
3 9 0
4 10 0
4 10 3 0
3 9 0
3 9 0
4 10 3 0
4 0
4 10 3 0
4 3 9 0
4 10 0
4 10 0
3 9 0
4 10 3 0
3 0
4 0
4 10 0
3 0
3 9 4 0
3 0
3 9 4 0
4 3 9 0
3 9 0
4 10 3 0
4 10 0
3 9 4 0
3 9 0
4 10 0
4 10 3 0
4 0
3 9 4 0
4 0
3 0
4 0
3 0
4 0
3 0
4 0
3 0
4 0
4 0
3 0
3 0
15 0
15 0
15 0
15 0
1 11 0
-1 11 0
11 0
7 1 0
7 -1 0
7 0
15 0
15 0
15 0
15 0
15 0
15 0
15 0
15 0
15 0
15 0
15 0
15 0
15 0
5 0
13 0
5 13 14 0
5 13 0
13 0
13 0
5 14 0
5 0
13 0
5 0
5 13 0
5 13 14 0
13 0
5 0
13 0
5 0
13 0
5 14 0
5 13 0
5 14 0
13 0
13 0
5 13 14 0
5 0
5 0
13 0
5 13 0
13 0
5 13 14 0
5 0
5 0
5 14 0
13 0
13 0
13 0
5 0
-3 4 -10 0
3 -9 -10 0
-4 3 -9 0
4 -9 -10 0
4 3 1 9 0
4 10 3 1 0
4 10 1 0
3 9 1 0
4 3 -1 9 0
3 9 -1 0
4 10 3 -1 0
4 10 -1 0
3 0
4 0
7 1 0
7 -1 0
7 0
3 -9 -10 0
-3 4 -10 0
4 -9 -10 0
-4 3 -9 0
4 10 1 0
3 9 1 0
4 10 3 1 0
4 3 1 9 0
3 9 -1 0
4 10 -1 0
4 3 -1 9 0
4 10 3 -1 0
3 0
4 0
1 11 0
-1 11 0
11 0
7 0
7 0
7 0
7 0
7 0
7 0
7 0
7 0
7 0
1 7 0
-1 7 0
7 0
4 0
3 0
4 10 3 0
4 0
4 10 0
3 9 4 0
3 9 0
3 0
4 10 0
4 0
3 0
4 10 3 0
3 9 0
3 9 4 0
4 10 0
3 9 0
4 10 3 0
3 0
3 9 4 0
4 0
3 9 4 0
4 10 0
4 0
3 9 0
3 0
4 10 3 0
3 0
4 0
1 11 0
-1 11 0
11 0
1 15 0
-1 15 0
15 0
7 0
7 0
7 0
7 0
7 0
7 0
7 0
7 0
1 11 0
-1 11 0
11 0
4 0
3 0
6 0
3 0
4 0
11 0
4 0
3 0
4 6 0
4 10 3 6 0
4 10 3 0
4 3 9 0
4 3 6 9 0
11 0
3 9 0
4 0
11 0
3 6 0
6 0
4 10 6 0
4 10 0
11 0
6 0
11 0
3 6 9 0
3 0
6 0
3 9 0
11 0
4 10 0
4 10 3 0
11 0
4 3 9 0
3 0
6 0
6 0
3 0
4 0
4 10 6 0
3 6 0
4 3 6 9 0
3 6 9 0
4 0
4 6 0
11 0
6 0
4 10 3 6 0
11 0
11 0
3 6 9 0
4 10 6 0
3 6 0
11 0
4 3 9 0
6 0
6 0
4 0
3 9 0
4 10 3 0
4 10 0
11 0
4 10 3 6 0
3 0
11 0
4 0
3 0
4 6 0
4 3 6 9 0
6 0
3 6 0
4 10 3 6 0
11 0
4 3 6 9 0
3 0
6 0
4 10 6 0
11 0
3 9 0
4 10 3 0
6 0
6 0
11 0
4 0
4 0
4 6 0
3 0
4 3 9 0
11 0
3 6 9 0
4 10 0
4 0
11 0
6 0
3 0
15 0
15 0
3 0
4 10 0
3 9 0
3 9 4 0
6 0
4 10 3 0
6 0
4 0
4 0
3 0
6 0
7 0
12 0
7 0
7 0
7 0
7 0
12 0
7 0
7 0
12 0
7 0
7 0
7 0
7 0
12 0
7 0
7 0
12 0
7 0
7 0
12 0
12 0
15 0
11 0
11 0
15 0
15 0
15 0
15 0
15 0
15 0
15 0
15 0
15 0
15 0
15 0
11 0
15 0
11 0
15 0
15 0
15 0
15 0
15 0
11 0
15 0
15 0
15 0
15 0
15 0
15 0
15 0
15 0
15 0
11 0
15 0
11 0
15 0
15 0
15 0
15 0
15 0
15 0
15 0
15 0
11 0
15 0
15 0
15 0
15 0
4 0
3 0
6 0
4 10 0
3 9 4 0
4 10 3 6 0
4 10 3 0
6 0
3 0
4 10 6 0
4 3 6 9 0
6 0
3 9 0
6 3 0
6 4 0
4 0
3 9 6 0
4 10 3 0
4 10 3 6 0
6 0
4 0
4 10 6 0
6 3 0
6 0
4 3 6 9 0
3 9 4 0
3 9 6 0
3 0
4 10 0
3 9 0
6 4 0
4 0
6 3 0
4 10 6 0
4 10 3 0
3 0
4 3 6 9 0
6 4 0
3 9 0
3 9 4 0
6 0
4 10 0
4 10 3 6 0
6 0
3 9 6 0
4 10 6 0
3 9 6 0
3 9 0
4 0
3 0
6 0
4 10 3 0
4 10 0
6 4 0
4 3 6 9 0
4 10 3 6 0
6 0
6 3 0
3 9 4 0
4 0
6 0
3 0
1 12 0
-1 12 0
12 0
13 1 0
13 12 1 0
12 1 0
12 13 1 0
13 -1 0
12 13 -1 0
12 -1 0
13 12 -1 0
13 0
12 0
1 11 0
-1 11 0
11 0
13 0
13 0
15 0
15 0
1 7 0
-1 7 0
7 0
7 0
7 0
7 0
7 0
7 0
7 0
13 1 0
13 -1 0
13 0
1 15 0
-1 15 0
15 0
3 9 0
6 3 0
4 10 3 6 0
4 3 6 9 0
4 10 3 0
6 4 0
3 9 4 0
4 10 0
4 10 6 0
3 9 6 0
6 0
3 9 0
4 10 0
6 4 0
6 3 0
3 9 6 0
4 3 6 9 0
4 10 6 0
6 0
4 10 3 0
4 10 3 6 0
3 9 4 0
6 -1 0
3 -1 0
4 3 -1 0
4 -1 0
3 -1 0
6 -1 0
3 6 -1 0
4 -1 0
4 6 -1 0
3 0
4 3 6 9 0
6 0
4 10 3 0
4 10 0
4 10 3 6 0
6 3 0
6 0
4 10 3 0
4 10 0
4 10 6 0
6 4 0
3 9 0
3 9 0
4 0
3 9 4 0
3 9 4 0
6 0
3 9 6 0
3 0
4 0
6 0
4 0
6 0
3 0
1 7 0
-1 7 0
7 0
12 1 0
12 -1 0
12 0
7 0
7 0
7 0
7 0
7 0
7 0
7 0
7 0
7 0
15 1 0
15 -1 0
15 0
7 0
7 0
15 1 0
15 -1 0
15 0
1 11 0
-1 11 0
11 0
15 0
15 0
15 0
15 0
15 0
15 0
15 0
15 0
15 0
15 0
15 0
15 0
15 0
5 14 0
5 14 0
5 14 0
5 14 0
5 14 0
11 0
1 12 0
-1 12 0
12 0
15 1 0
15 -1 0
15 0
1 15 0
-1 15 0
15 0
1 11 0
-1 11 0
11 0
1 15 0
-1 15 0
15 0
15 0
15 0
15 0
15 0
15 0
15 0
15 0
15 0
15 0
15 0
4 6 0
4 0
4 10 3 6 0
4 10 0
3 6 9 0
6 0
3 0
4 10 6 0
3 6 0
4 10 3 0
4 3 6 9 0
6 0
4 3 9 0
3 9 0
3 6 0
4 10 0
4 0
6 0
6 0
4 3 9 0
4 10 6 0
4 10 3 0
3 0
4 6 0
3 9 0
4 3 6 9 0
4 10 3 6 0
3 6 9 0
4 0
6 0
3 0
4 0
3 6 0
4 6 0
4 3 9 0
3 0
3 0
6 0
3 9 0
3 6 9 0
4 10 3 0
6 0
4 10 3 6 0
4 10 0
4 10 0
6 0
3 9 4 0
3 9 0
4 10 6 0
4 10 3 0
4 0
4 3 6 9 0
6 0
4 0
3 0
4 0
6 0
3 0
6 0
12 0
12 0
6 0
4 10 0
3 9 0
3 9 4 0
4 10 3 0
6 0
3 0
4 0
6 0
4 0
3 0
5 0
5 14 0
15 0
15 0
13 0
15 0
15 0
15 0
15 0
15 0
15 0
15 0
15 0
15 0
13 0
15 0
15 0
15 0
15 0
13 0
15 0
15 0
15 0
15 0
15 0
15 0
15 0
15 0
15 0
13 0
15 0
15 0
15 0
15 0
15 0
15 0
13 0
5 0
5 13 0
13 0
5 0
13 0
5 13 14 0
13 0
5 14 0
5 0
5 13 14 0
5 0
5 0
5 14 0
13 0
5 13 0
13 0
13 0
5 0
5 13 14 0
13 0
5 14 0
5 0
5 13 0
13 0
13 0
5 14 0
5 0
13 0
5 13 0
13 0
5 0
5 13 14 0
13 0
13 0
5 0
12 0
11 0
12 0
1 7 0
1 12 0
-1 7 0
-1 12 0
7 0
12 0
12 0
12 0
12 0
7 0
13 0
12 0
12 0
12 0
12 0
12 0
12 0
12 0
12 0
12 0
7 0
12 0
7 0
12 0
12 0
12 0
7 0
12 0
12 0
12 0
12 0
12 0
12 0
7 0
12 0
12 0
7 0
12 0
11 0
13 0
11 0
12 0
7 0
13 0
12 0
7 0
12 0
7 0
7 0
7 0
7 0
12 0
7 0
12 0
12 0
12 0
11 0
12 0
11 0
12 0
11 0
12 0
11 0
12 0
12 0
12 0
12 0
7 0
12 0
11 0
12 0
11 0
7 0
7 0
12 0
12 0
7 0
12 0
12 0
11 0
12 0
12 0
12 0
12 0
11 0
12 0
12 0
12 0
12 0
7 0
12 0
7 0
12 0
12 0
11 0
12 0
12 0
11 0
11 0
12 0
7 0
7 0
7 0
12 0
12 0
7 0
12 0
12 0
12 0
7 0
11 0
13 0
12 0
13 0
13 0
12 0
12 0
7 0
12 0
12 0
12 0
12 0
12 0
12 0
7 0
12 0
12 0
7 0
12 0
12 0
7 0
12 0
12 0
12 0
12 0
11 0
12 0
7 0
12 0
11 0
7 0
12 0
12 0
12 0
7 0
12 0
12 0
12 0
12 0
7 0
12 0
12 0
11 0
12 0
12 0
12 0
7 0
13 0
12 0
12 0
12 0
12 0
12 0
7 0
12 0
7 0
12 0
7 0
7 0
7 0
7 0
13 0
12 0
11 0
12 0
12 0
12 0
12 0
12 0
12 0
7 0
12 0
12 0
11 0
12 0
12 0
12 0
13 0
11 0
7 0
7 0
12 0
12 0
12 0
12 0
12 0
12 0
12 0
12 0
12 0
12 0
11 0
11 0
12 0
12 0
12 0
12 0
12 0
12 0
12 0
7 0
7 0
7 0
12 0
12 0
12 0
12 0
13 0
12 0
12 0
13 0
11 0
12 0
7 0
12 0
12 0
11 0
12 0
12 0
12 0
12 0
12 0
12 0
7 0
7 0
7 0
12 0
12 0
12 0
12 0
12 0
7 0
7 0
7 0
13 0
12 0
7 0
11 0
12 0
7 0
11 0
12 0
11 0
12 0
12 0
12 0
7 0
12 0
7 0
12 0
11 0
7 0
12 0
13 0
12 0
12 0
11 0
7 0
12 0
7 0
13 0
12 0
7 0
12 0
7 0
12 0
12 0
7 0
12 0
12 0
12 0
12 0
12 0
12 0
11 0
11 0
12 0
13 0
12 0
12 0
12 0
12 0
7 0
7 0
7 0
12 0
12 0
12 0
12 0
12 0
7 0
12 0
7 0
12 0
12 0
7 0
12 0
12 0
12 0
7 0
12 0
12 0
12 0
12 0
12 0
12 0
11 0
7 0
11 0
12 0
12 0
12 0
11 0
11 1 0
11 -1 0
11 0
3 0
6 0
4 0
-1 0
3 0
4 0
6 0
11 0
11 0
7 1 0
7 -1 0
7 0
15 1 0
15 -1 0
15 0
13 0
5 0
13 0
5 0
13 0
5 0
5 13 14 0
13 0
5 14 0
5 13 0
5 0
5 13 14 0
13 0
5 14 0
5 13 0
13 0
5 0
13 0
13 0
5 13 0
13 0
5 0
5 13 14 0
13 0
5 14 0
5 0
5 13 14 0
13 0
5 0
13 0
13 0
5 0
5 14 0
5 13 0
13 0
5 0
13 1 0
13 -1 0
13 0
15 1 0
15 -1 0
15 0
15 0
11 0
11 0
15 0
15 0
15 0
15 0
15 0
15 0
11 0
15 0
15 0
15 0
11 0
15 0
15 0
15 0
15 0
15 0
15 0
15 0
11 0
15 0
15 0
15 0
11 0
15 0
15 0
15 0
11 0
15 0
11 0
15 0
15 0
15 0
15 0
15 0
15 0
15 1 0
15 -1 0
15 0
4 3 9 0
3 0
4 10 0
4 10 3 0
4 3 9 0
3 9 0
3 9 0
4 10 3 0
4 3 9 0
3 0
4 0
3 9 0
4 10 3 0
3 9 0
4 10 0
4 10 3 0
4 0
4 10 0
4 10 0
4 0
4 10 0
3 9 0
4 10 0
3 9 0
3 0
13 0
3 9 0
4 10 3 0
4 10 0
4 10 0
3 9 0
4 10 0
4 10 3 0
4 10 3 0
3 0
4 0
3 0
4 10 3 0
4 10 0
4 0
3 0
13 0
13 0
4 3 9 0
13 0
3 9 0
4 0
3 9 4 0
13 0
3 9 0
4 10 3 0
4 10 0
3 0
3 9 4 0
4 10 3 0
4 10 3 0
4 10 3 0
4 10 0
3 9 0
4 10 0
3 9 0
3 9 0
4 3 9 0
3 0
3 9 0
4 3 9 0
3 9 0
4 0
4 10 0
4 10 0
3 0
4 0
3 0
4 10 0
4 10 3 0
3 9 0
13 0
4 0
3 9 0
3 0
4 3 9 0
4 3 9 0
3 9 0
13 0
4 3 9 0
4 10 3 0
4 0
4 10 3 0
4 0
4 3 9 0
3 9 0
4 10 0
4 0
4 10 3 0
4 10 3 0
4 0
4 10 3 0
13 0
13 0
13 0
3 9 4 0
4 10 3 0
4 10 0
4 10 3 0
3 0
4 3 9 0
3 0
4 10 3 0
13 0
4 10 0
4 10 0
4 3 9 0
4 3 9 0
4 10 3 0
4 10 0
3 9 4 0
3 9 0
4 3 9 0
13 0
4 0
4 10 0
4 3 9 0
4 10 0
3 9 4 0
3 0
3 0
3 9 4 0
3 9 4 0
3 0
3 9 0
4 0
4 10 3 0
3 0
3 9 4 0
4 0
4 0
3 9 0
3 9 0
4 10 0
4 10 3 0
13 0
3 9 0
4 3 9 0
13 0
4 10 0
3 9 4 0
3 9 0
4 10 0
4 3 9 0
4 3 9 0
3 0
4 10 0
4 10 0
4 10 0
4 10 0
4 10 0
3 9 0
3 9 4 0
4 0
13 0
4 3 9 0
4 10 3 0
4 0
4 0
4 10 3 0
3 0
4 10 0
4 0
4 10 0
3 9 4 0
4 3 9 0
4 10 0
13 0
4 10 3 0
4 10 3 0
4 10 0
4 10 0
4 10 3 0
3 9 0
3 0
4 0
4 10 3 0
3 0
3 9 0
4 0
4 10 0
4 10 3 0
4 10 3 0
3 9 4 0
3 0
4 3 9 0
3 9 0
3 0
3 0
3 9 0
4 10 0
4 10 3 0
4 3 9 0
4 10 0
4 10 3 0
3 0
4 0
3 9 0
13 0
3 9 0
4 10 3 0
4 10 3 0
4 10 0
4 0
4 10 0
3 9 0
3 9 4 0
3 9 0
4 10 0
3 9 4 0
3 9 0
4 10 3 0
4 10 3 0
3 0
3 0
4 10 0
3 9 0
4 10 3 0
4 3 9 0
4 0
3 9 0
4 0
3 9 4 0
3 9 0
13 0
3 9 4 0
4 10 3 0
4 3 9 0
4 3 9 0
3 0
4 3 9 0
3 9 0
4 10 0
13 0
4 0
13 0
4 10 3 0
4 0
3 9 0
4 10 3 0
4 0
3 9 0
3 9 0
4 3 9 0
13 0
4 0
4 0
3 0
13 0
4 10 3 0
3 0
4 3 9 0
4 10 3 0
3 0
3 9 0
4 3 9 0
4 10 0
4 0
13 0
3 0
3 9 0
4 10 0
3 0
4 10 3 0
4 3 9 0
4 10 3 0
3 0
3 9 0
3 9 0
13 0
4 0
4 0
4 0
4 0
3 0
4 0
4 0
13 0
4 0
3 0
3 0
3 0
13 0
4 0
3 0
3 0
3 0
3 0
4 0
3 0
13 0
4 0
3 0
3 0
4 0
3 0
3 0
3 0
4 0
3 0
4 0
13 0
3 0
4 0
3 0
4 0
4 0
3 0
4 0
3 0
4 0
13 0
3 0
4 0
3 0
3 0
4 0
4 0
3 0
4 0
4 0
4 0
3 0
3 9 0
3 9 0
3 0
13 0
13 0
4 0
3 9 4 0
4 10 3 0
4 10 3 0
4 10 0
4 10 0
13 0
13 0
4 10 0
4 0
3 0
4 10 3 0
4 10 0
4 10 0
4 0
4 10 0
4 10 3 0
3 9 0
4 10 0
4 3 9 0
3 9 4 0
4 3 9 0
4 10 0
13 0
4 10 0
13 0
4 10 0
4 10 3 0
4 3 9 0
4 0
3 0
3 9 0
3 9 0
3 9 0
4 10 3 0
3 9 0
3 9 4 0
4 0
4 10 3 0
3 0
3 9 0
3 0
4 10 3 0
4 10 0
3 9 0
3 9 0
4 0
3 0
4 0
4 0
3 9 4 0
4 3 9 0
4 3 9 0
4 10 0
3 9 4 0
3 9 0
3 9 0
4 10 0
4 0
4 10 0
13 0
4 10 0
3 9 0
4 0
3 0
3 9 4 0
4 3 9 0
4 3 9 0
4 0
3 0
3 9 4 0
3 0
3 9 0
13 0
4 10 3 0
4 0
3 9 0
3 0
4 10 0
4 10 3 0
13 0
4 10 3 0
3 9 0
4 10 3 0
4 10 0
4 0
3 0
4 3 9 0
3 9 0
4 10 3 0
4 3 9 0
4 10 0
4 3 9 0
4 10 3 0
4 10 3 0
3 0
4 10 3 0
3 9 4 0
4 0
3 9 0
3 0
4 3 9 0
13 0
4 10 3 0
4 10 3 0
4 0
4 10 3 0
3 0
3 9 0
4 0
3 9 0
4 3 9 0
3 9 0
3 9 0
4 3 9 0
4 10 0
4 10 3 0
3 0
3 0
4 3 9 0
4 10 0
4 10 3 0
13 0
3 9 0
4 3 9 0
4 10 0
4 10 0
4 10 0
4 10 3 0
4 0
4 0
4 10 0
4 10 3 0
13 0
3 0
3 9 0
4 0
13 0
3 0
4 0
4 0
3 0
3 0
4 0
4 0
4 0
3 0
4 0
4 0
4 0
3 0
4 0
3 0
3 0
4 0
4 0
4 0
13 0
3 0
4 0
3 0
13 0
3 0
4 0
3 0
4 0
3 0
13 0
3 0
3 0
3 0
4 0
4 0
4 0
4 0
3 0
3 0
3 0
3 0
4 0
4 0
3 0
13 0
3 0
3 0
4 0
3 0
4 0
3 0
1 12 0
-1 12 0
12 0
1 11 0
-1 11 0
11 0
5 0
2 8 0
2 0
2 0
5 14 0
5 0
2 8 0
2 0
5 14 0
2 0
2 0
5 14 0
2 0
2 8 0
5 0
2 0
2 8 0
5 14 0
11 0
11 0
7 0
7 0
7 0
7 0
7 0
7 0
7 0
7 0
7 0
11 0
11 0
11 0
6 0
3 9 0
3 0
4 10 0
6 0
4 10 3 0
4 0
3 9 4 0
15 1 0
15 -1 0
15 0
4 10 0
3 9 4 0
3 9 0
4 10 3 0
4 10 0
3 9 4 0
3 9 0
4 10 3 0
7 0
7 0
7 0
7 0
7 0
7 0
3 0
11 0
6 0
4 0
4 10 6 0
4 3 6 9 0
3 9 6 0
4 10 3 0
6 0
4 10 0
4 10 3 6 0
6 0
6 3 0
11 0
3 0
6 4 0
3 9 4 0
4 0
11 0
3 9 0
3 9 6 0
4 10 3 6 0
4 10 6 0
4 0
4 10 3 0
4 10 0
11 0
6 0
6 0
3 9 0
6 4 0
3 0
6 3 0
4 3 6 9 0
11 0
3 9 4 0
3 0
4 10 6 0
4 10 3 6 0
6 4 0
3 9 0
4 0
6 3 0
4 10 0
11 0
4 3 6 9 0
6 0
3 9 6 0
6 0
4 10 3 0
11 0
3 9 4 0
4 10 6 0
11 0
4 0
3 9 0
6 3 0
6 0
3 0
3 9 4 0
6 0
4 10 3 0
6 4 0
3 9 6 0
4 10 0
11 0
4 10 3 6 0
4 3 6 9 0
1 11 0
-1 11 0
11 0
15 0
15 0
15 0
15 0
-3 4 -10 0
4 -9 -10 0
3 -9 -10 0
-4 3 -9 0
3 9 1 0
4 10 3 1 0
4 3 1 9 0
4 10 1 0
4 10 3 -1 0
4 10 -1 0
3 9 -1 0
4 3 -1 9 0
3 0
4 0
1 12 0
-1 12 0
12 0
4 10 0
3 9 0
3 9 4 0
4 10 3 0
4 10 0
3 9 0
3 9 4 0
4 10 3 0
1 11 0
-1 11 0
11 0
3 9 0
4 10 3 0
4 0
3 0
3 9 4 0
4 10 0
6 0
6 0
11 0
11 0
3 0
4 0
6 0
3 9 6 0
4 10 6 0
3 9 0
6 3 0
4 10 0
6 0
4 3 6 9 0
6 4 0
6 0
3 9 4 0
3 0
4 10 3 0
4 0
4 10 3 6 0
4 10 3 0
4 10 0
6 3 0
4 10 6 0
3 9 6 0
6 0
3 9 0
4 0
3 9 4 0
3 0
6 4 0
6 0
4 10 3 6 0
4 3 6 9 0
4 10 3 6 0
4 0
4 10 0
3 9 6 0
6 3 0
4 10 3 0
3 9 4 0
3 0
6 0
6 4 0
4 10 6 0
3 9 0
4 3 6 9 0
6 0
4 10 3 0
6 0
4 10 3 6 0
4 10 0
3 0
3 9 6 0
6 0
4 3 6 9 0
3 9 0
6 3 0
4 0
3 9 4 0
4 10 6 0
6 4 0
-14 -2 -16 0
-2 -16 -5 0
-8 -16 -5 0
-14 -8 -16 0
-2 -16 -5 0
-2 -11 -16 -5 0
-14 -2 -16 0
-2 -16 -5 0
-14 -8 -16 0
-8 -16 -5 0
5 14 0
-4 3 -9 0
3 -9 -10 0
-3 4 -10 0
4 -9 -10 0
3 9 1 0
4 3 1 9 0
4 10 1 0
4 10 3 1 0
4 10 -1 0
4 10 3 -1 0
3 9 -1 0
4 3 -1 9 0
3 0
4 0
1 11 0
-1 11 0
11 0
1 7 0
-1 7 0
7 0
15 0
15 0
15 0
15 0
15 0
15 0
15 0
15 0
15 0
15 0
7 1 0
7 -1 0
7 0
7 0
7 0
12 0
12 0
12 0
7 0
12 0
7 0
12 0
7 0
12 0
7 0
7 0
12 0
12 0
7 0
12 0
7 0
7 1 0
7 -1 0
7 0
7 1 0
7 -1 0
7 0
-3 4 -10 0
4 -9 -10 0
3 -9 -10 0
-4 3 -9 0
4 0
3 0
4 10 3 0
3 9 0
4 10 0
3 9 4 0
4 10 3 0
3 9 0
3 9 4 0
4 10 0
4 0
3 0
4 10 0
3 9 4 0
4 10 3 0
4 0
3 9 0
3 0
3 9 0
4 10 0
4 10 3 0
3 0
4 0
3 9 4 0
3 0
4 0
15 0
5 13 14 0
5 14 0
13 0
5 13 0
5 0
5 0
13 0
13 0
5 13 14 0
5 14 0
13 0
5 13 0
5 0
5 0
13 0
13 0
7 1 0
7 -1 0
15 0
15 0
15 1 0
15 0
15 0
15 -1 0
15 0
15 1 0
15 -1 0
15 0
15 0
15 0
15 0
15 0
15 0
15 0
15 0
15 0
15 0
15 0
15 0
15 0
15 0
15 0
15 0
15 0
15 0
11 0
11 0
11 0
3 0
4 0
15 0
15 0
15 0
15 0
15 0
15 0
15 0
15 0
15 0
3 9 0
3 9 4 0
3 9 4 0
4 0
4 10 3 0
4 10 3 0
3 9 0
4 10 3 0
4 3 9 0
4 0
13 0
4 10 0
4 10 0
3 0
4 10 0
3 9 0
4 10 3 0
3 9 0
4 0
3 0
4 10 3 0
3 0
13 0
4 10 3 0
3 9 0
3 9 0
3 0
4 10 3 0
4 0
3 9 0
4 10 0
4 3 9 0
4 10 0
4 10 0
3 0
3 9 0
3 9 0
4 10 0
4 10 3 0
3 0
4 3 9 0
4 10 3 0
4 3 9 0
3 9 4 0
4 10 3 0
3 9 0
4 10 0
3 9 0
3 0
3 9 0
4 10 3 0
3 9 4 0
4 10 3 0
3 9 4 0
4 10 3 0
4 10 3 0
4 3 9 0
4 10 0
4 0
4 10 0
3 9 0
4 10 0
4 10 3 0
3 0
13 0
3 0
4 10 3 0
4 0
3 9 0
3 9 0
3 0
3 9 0
4 10 0
4 0
4 10 0
4 0
3 9 0
3 9 4 0
3 0
3 0
13 0
3 9 0
3 9 4 0
13 0
3 9 0
4 0
13 0
4 10 3 0
4 0
4 10 3 0
4 10 0
3 9 0
13 0
4 0
13 0
4 10 0
4 10 0
3 9 4 0
4 10 0
13 0
4 10 3 0
3 9 0
3 9 0
4 10 3 0
3 9 0
13 0
13 0
13 0
3 9 0
3 9 0
3 9 0
13 0
3 9 0
4 10 3 0
4 10 0
3 9 0
4 10 0
4 0
3 9 4 0
13 0
4 10 3 0
3 0
4 10 0
4 10 3 0
3 9 0
3 0
4 10 3 0
4 0
4 10 0
4 10 3 0
4 10 0
4 10 0
4 0
4 3 9 0
4 10 0
13 0
4 10 0
4 3 9 0
3 9 0
4 10 3 0
4 10 3 0
4 10 3 0
4 10 0
3 9 0
13 0
4 10 0
4 10 0
4 3 9 0
4 10 0
3 9 0
13 0
4 10 0
4 10 0
3 9 4 0
3 0
3 9 4 0
4 10 3 0
3 9 4 0
4 3 9 0
3 9 0
3 9 4 0
4 0
4 10 0
3 9 0
4 0
4 10 3 0
4 10 3 0
3 0
3 9 4 0
3 0
4 10 3 0
4 10 0
4 0
4 0
3 9 0
4 3 9 0
13 0
4 3 9 0
4 3 9 0
4 10 3 0
3 9 0
4 10 0
4 10 0
3 0
3 9 0
4 0
4 3 9 0
4 10 3 0
3 0
4 10 0
4 3 9 0
3 9 4 0
4 10 3 0
4 3 9 0
3 9 0
4 3 9 0
3 9 4 0
3 0
4 3 9 0
3 9 4 0
3 9 4 0
4 10 3 0
3 9 4 0
3 9 0
4 10 3 0
3 9 4 0
3 9 4 0
4 10 0
4 0
3 9 0
13 0
4 10 3 0
4 10 3 0
3 9 0
4 10 3 0
3 9 0
4 10 0
4 10 3 0
13 0
3 0
4 10 3 0
13 0
3 9 0
3 9 0
3 9 4 0
3 0
4 0
4 10 0
4 10 0
4 3 9 0
3 9 0
3 9 4 0
13 0
4 10 0
3 0
13 0
3 9 0
3 9 4 0
4 10 3 0
4 0
3 0
3 9 0
3 0
3 9 0
4 10 0
4 10 0
3 9 0
3 0
3 9 0
3 0
3 9 0
3 9 0
4 10 0
13 0
4 0
3 9 4 0
4 10 3 0
4 10 0
13 0
4 10 3 0
3 0
3 9 0
3 9 0
3 9 4 0
4 0
3 9 4 0
4 10 3 0
4 10 0
4 10 3 0
3 0
4 10 0
4 0
4 0
4 10 0
3 9 4 0
3 9 0
4 3 9 0
4 10 0
4 10 3 0
4 10 0
4 3 9 0
4 10 3 0
4 10 3 0
4 10 3 0
4 3 9 0
4 0
4 10 0
3 9 4 0
4 0
4 10 3 0
4 10 3 0
4 10 3 0
4 3 9 0
4 10 3 0
13 0
3 9 4 0
3 0
4 3 9 0
3 9 0
4 10 0
4 10 0
4 10 0
3 9 4 0
13 0
3 9 0
4 10 0
4 10 3 0
4 10 0
3 9 4 0
4 3 9 0
13 0
3 9 0
4 3 9 0
4 3 9 0
4 3 9 0
4 3 9 0
4 10 0
4 0
3 9 0
3 9 0
4 10 0
3 9 0
4 0
4 10 3 0
4 10 0
3 0
4 10 0
4 10 0
4 10 3 0
13 0
3 9 0
4 10 3 0
4 3 9 0
4 0
3 0
4 10 3 0
4 10 3 0
4 10 0
3 0
3 9 0
3 9 4 0
3 0
4 10 3 0
4 10 0
13 0
3 9 0
3 9 0
4 0
3 9 0
3 0
3 9 0
3 9 0
3 9 4 0
3 9 0
3 0
3 9 4 0
4 3 9 0
3 9 4 0
4 3 9 0
13 0
4 10 3 0
4 0
4 10 3 0
4 10 0
3 9 0
4 10 3 0
4 10 0
3 9 0
3 9 0
13 0
4 10 3 0
3 9 4 0
4 3 9 0
4 10 0
4 10 3 0
13 0
13 0
3 9 4 0
4 10 3 0
4 10 0
4 10 3 0
4 10 3 0
4 10 0
3 9 0
3 0
3 9 0
13 0
3 0
4 10 0
4 0
4 3 9 0
4 10 0
13 0
4 0
3 9 0
4 10 3 0
4 0
3 0
3 0
4 10 0
4 0
4 3 9 0
3 9 0
4 10 0
4 0
4 10 3 0
13 0
4 0
3 0
4 0
3 0
3 0
3 0
3 0
4 0
3 0
4 0
4 0
3 0
4 0
3 0
4 0
3 0
3 0
4 0
4 0
3 0
3 0
4 0
4 0
4 0
4 0
3 0
4 0
13 0
3 0
13 0
13 0
13 0
3 0
4 0
4 0
4 0
3 0
3 0
3 0
3 0
3 0
3 0
3 0
3 0
3 0
13 0
4 0
4 0
3 0
4 0
3 0
4 0
4 0
4 0
3 0
3 0
3 0
3 0
4 0
3 0
3 0
3 0
4 0
4 0
3 0
4 0
4 0
4 0
4 0
3 0
4 0
4 0
3 0
4 0
4 0
4 0
13 0
13 0
3 0
4 0
3 0
3 0
4 10 3 0
4 10 3 0
3 9 0
4 10 3 0
3 0
3 9 0
3 0
4 0
13 0
3 9 0
4 0
4 10 0
4 10 0
13 0
4 0
4 3 9 0
13 0
4 10 3 0
13 0
4 10 3 0
3 9 0
13 0
3 0
4 10 0
4 10 0
4 10 0
4 0
4 10 0
3 9 4 0
13 0
13 0
4 10 3 0
3 9 0
3 0
3 9 0
3 9 4 0
3 0
4 10 0
13 0
3 9 0
4 10 3 0
13 0
3 9 0
13 0
4 0
4 10 3 0
4 10 3 0
4 10 3 0
4 10 0
13 0
3 9 0
4 0
3 9 0
4 10 0
4 10 3 0
4 10 3 0
4 10 0
3 9 0
3 9 4 0
4 0
4 10 0
4 0
4 10 0
3 9 0
3 9 4 0
3 0
3 9 0
13 0
3 9 4 0
4 10 3 0
3 9 4 0
3 9 4 0
4 10 3 0
3 9 0
3 9 0
3 9 0
3 9 0
4 3 9 0
4 10 0
4 10 3 0
3 9 4 0
3 9 4 0
3 0
13 0
4 10 3 0
4 0
4 10 0
3 0
4 10 0
3 9 4 0
3 9 0
4 10 0
3 9 0
4 10 3 0
4 10 3 0
3 9 4 0
3 9 4 0
4 3 9 0
3 9 4 0
3 0
4 10 3 0
4 10 0
3 9 0
4 10 0
3 9 4 0
4 3 9 0
4 10 0
4 3 9 0
4 3 9 0
3 9 0
3 9 0
13 0
3 9 4 0
3 9 0
3 9 0
4 10 0
3 0
4 0
3 0
3 9 0
3 9 0
4 10 3 0
4 10 3 0
3 0
4 10 3 0
4 3 9 0
4 3 9 0
3 9 0
4 10 0
3 9 4 0
4 3 9 0
3 9 0
3 0
13 0
4 10 0
4 3 9 0
3 9 0
4 0
3 9 0
4 10 0
4 0
4 0
4 3 9 0
4 0
4 3 9 0
3 0
4 0
13 0
3 0
4 0
3 9 0
3 0
4 10 0
4 10 3 0
13 0
3 9 0
3 9 0
3 9 4 0
3 9 0
4 10 3 0
4 0
4 10 3 0
4 10 0
4 10 3 0
4 10 3 0
4 10 3 0
4 3 9 0
4 3 9 0
4 10 0
4 0
3 9 0
3 9 0
4 10 0
4 10 0
3 0
4 10 3 0
3 0
4 10 0
4 3 9 0
3 0
4 10 0
4 10 0
3 9 4 0
4 3 9 0
4 10 0
4 10 0
3 0
4 10 3 0
4 10 0
4 10 3 0
3 9 0
3 9 0
4 10 3 0
3 9 4 0
4 10 0
4 10 3 0
4 10 3 0
13 0
4 0
3 9 0
4 10 3 0
4 10 0
4 10 3 0
4 3 9 0
4 10 0
4 0
13 0
4 0
3 0
4 0
3 0
3 0
3 0
4 0
4 0
3 0
4 0
4 0
3 0
4 0
4 0
4 0
4 0
13 0
3 0
4 0
4 0
3 0
13 0
3 0
13 0
4 0
3 0
13 0
13 0
4 0
3 0
4 0
3 0
4 0
13 0
4 0
3 0
3 0
3 0
4 0
4 0
3 0
4 0
13 0
3 0
3 0
4 0
4 0
4 0
3 0
3 0
3 0
3 0
4 0
4 0
3 0
3 0
3 0
4 0
3 0
3 0
3 0
4 0
3 0
4 0
4 0
4 0
3 0
3 0
4 0
3 0
4 0
3 0
4 0
3 0
3 0
3 0
3 0
4 0
3 0
4 0
3 0
4 0
4 0
6 0
3 9 4 0
6 0
3 0
4 10 3 0
4 0
4 10 0
3 9 0
4 0
6 0
3 0
11 0
11 0
11 0
11 0
11 0
15 0
15 0
15 0
15 0
15 0
15 0
15 0
15 0
15 0
5 14 0
5 0
13 1 0
13 -1 0
13 0
7 0
7 0
7 0
7 0
7 0
7 0
7 0
7 0
7 0
15 1 0
15 -1 0
15 0
15 0
15 0
15 0
15 0
15 0
15 0
15 0
15 0
15 0
13 0
5 0
5 0
13 0
5 13 0
5 13 14 0
13 0
13 0
5 14 0
5 0
13 0
5 0
5 0
13 0
5 13 14 0
5 14 0
13 0
5 13 0
13 0
5 0
13 0
5 0
13 0
5 14 0
5 13 14 0
5 13 0
5 14 0
5 0
13 0
5 0
5 13 0
5 13 14 0
13 0
13 0
13 0
5 0
-8 1 0
-2 -8 0
2 8 0
2 0
11 0
11 0
11 0
11 0
11 0
11 0
11 1 0
11 -1 0
11 0
2 -8 0
2 -8 0
1 11 0
1 12 0
-1 11 0
-1 12 0
11 0
12 0
6 0
4 0
3 0
4 3 1 9 0
4 3 6 1 9 0
6 1 0
3 6 1 0
4 10 3 6 1 0
4 10 3 1 0
4 10 1 0
4 10 6 1 0
3 6 1 9 0
4 6 1 0
3 9 1 0
3 6 -1 0
6 -1 0
4 10 3 -1 0
4 10 -1 0
4 10 6 -1 0
4 3 -1 9 0
4 3 6 -1 9 0
4 10 3 6 -1 0
4 6 -1 0
3 6 -1 9 0
3 9 -1 0
3 0
4 0
6 0
11 0
11 0
11 0
11 0
11 0
11 0
11 0
11 0
11 0
7 1 0
7 -1 0
7 0
13 0
13 0
13 0
13 0
13 0
13 0
13 0
13 0
13 0
13 0
7 1 0
7 -1 0
7 0
12 0
12 0
12 0
12 0
12 0
2 8 0
12 0
12 0
4 0
6 0
3 0
3 9 4 0
6 0
4 10 6 0
6 3 0
6 0
6 4 0
4 3 6 9 0
4 10 0
3 9 0
3 0
4 10 3 6 0
4 0
4 10 3 0
3 9 6 0
3 9 6 0
6 0
4 10 3 0
4 0
4 10 3 6 0
6 4 0
6 3 0
3 0
3 9 0
4 10 6 0
4 3 6 9 0
6 0
4 10 0
3 9 4 0
3 9 0
6 0
6 4 0
4 3 6 9 0
3 0
4 10 0
4 0
4 10 3 0
6 3 0
6 0
4 10 3 6 0
3 9 4 0
3 9 6 0
4 10 6 0
3 9 4 0
3 9 6 0
4 10 3 6 0
6 4 0
6 0
4 10 6 0
3 9 0
4 0
3 0
4 10 0
6 0
4 10 3 0
4 3 6 9 0
6 3 0
15 1 0
15 -1 0
15 0
11 0
1 11 0
-1 11 0
11 0
1 11 0
-1 11 0
11 0
12 0
15 0
15 0
15 0
15 0
15 0
15 0
15 0
15 0
15 0
15 0
15 0
15 0
15 0
15 0
15 0
15 0
15 0
15 0
15 0
15 0
15 0
15 0
15 0
15 0
15 0
7 1 0
7 -1 0
7 0
3 9 4 0
3 9 0
4 10 0
4 10 0
3 9 0
3 9 0
4 10 3 0
3 9 4 0
3 9 4 0
3 9 0
4 10 3 0
4 10 0
4 10 3 0
3 9 4 0
4 10 3 0
4 10 0
3 9 4 0
4 10 3 0
3 9 4 0
3 9 0
4 10 0
3 9 0
3 9 4 0
4 10 0
4 10 3 0
4 10 3 0
4 10 0
4 10 3 0
3 9 4 0
3 9 0
4 10 0
3 9 0
3 0
3 0
3 0
4 0
4 0
4 0
4 0
3 0
3 9 4 0
4 10 3 0
3 9 4 0
4 0
3 9 4 0
3 9 0
3 0
4 10 0
4 10 3 0
4 10 0
4 10 0
4 10 3 0
4 10 3 0
4 10 0
4 10 3 0
3 9 0
3 9 0
3 9 0
3 9 0
3 9 4 0
3 9 4 0
4 10 0
3 0
3 0
4 0
3 0
4 0
3 0
4 0
4 0
4 0
3 0
13 1 0
13 -1 0
13 0
11 0
11 0
13 0
7 0
7 0
7 0
7 0
7 0
7 0
13 0
13 0
13 0
7 0
13 0
7 0
7 0
7 0
7 0
7 0
13 0
13 0
13 0
13 0
7 0
7 0
7 0
7 0
7 0
13 0
7 0
15 0
11 0
15 0
15 0
12 0
12 0
15 0
15 0
13 0
15 0
13 0
15 0
15 0
13 0
15 0
13 0
13 0
15 0
15 0
15 0
13 0
13 0
15 0
13 0
15 0
13 0
15 0
13 0
12 1 0
12 7 1 0
7 1 0
7 -1 0
12 -1 0
7 12 -1 0
12 0
7 0
4 0
3 9 4 0
4 10 3 0
6 0
6 0
4 10 0
3 9 0
3 0
4 0
3 0
6 0
7 1 0
7 -1 0
7 0
6 0
6 0
6 0
6 0
6 0
6 0
6 0
6 0
7 0
7 0
7 0
7 0
7 0
7 0
7 0
7 0
7 0
7 0
7 0
7 0
7 0
7 0
7 0
7 0
7 0
7 0
7 0
7 0
7 0
11 0
11 0
15 0
15 0
15 0
15 0
1 7 0
-1 7 0
7 0
13 0
13 0
1 15 0
-1 15 0
15 0
13 0
13 0
3 0
4 0
3 9 1 0
4 3 1 9 0
4 10 1 0
4 10 3 1 0
4 10 3 -1 0
4 10 -1 0
3 9 -1 0
4 3 -1 9 0
3 0
4 0
11 1 0
11 -1 0
11 0
1 11 0
-1 11 0
11 0
11 0
11 0
11 0
12 0
12 0
11 0
12 0
11 0
11 0
11 0
12 0
11 0
12 0
11 0
11 0
12 0
11 0
12 0
11 0
12 0
11 0
11 0
11 0
12 0
11 0
11 0
12 0
12 0
11 0
12 0
12 0
11 0
11 0
11 0
15 0
15 0
15 0
15 0
15 0
15 0
15 0
15 0
15 0
15 0
15 0
15 0
15 0
15 0
1 15 0
-1 15 0
15 0
1 15 0
-1 15 0
15 0
-2 -11 -16 -5 0
-14 -2 -16 0
-14 -8 -16 0
-2 -16 -5 0
-8 -16 -5 0
-2 -16 -5 0
-2 -16 -5 0
-8 -16 -5 0
-14 -2 -16 0
-14 -8 -16 0
-8 -16 -5 0
-14 -8 -16 0
-2 -16 -5 0
-14 -2 -16 0
12 1 0
12 -1 0
12 0
1 11 0
-1 11 0
11 0
15 0
15 0
15 0
15 0
15 0
15 0
15 0
15 0
15 0
11 0
7 1 0
7 -1 0
7 0
15 0
15 0
15 0
15 0
15 0
15 0
15 0
15 0
15 0
15 0
11 0
7 0
7 0
-14 -2 -16 0
-14 -8 -16 0
-2 -16 -5 0
-2 -11 -16 -5 0
-8 -16 -5 0
-2 -16 -5 0
-14 -2 -16 0
-14 -8 -16 0
-2 -16 -5 0
-8 -16 -5 0
-16 -5 0
-14 -16 0
15 1 0
15 -1 0
15 0
12 0
12 0
7 0
7 0
12 0
7 0
7 0
12 0
12 0
12 0
7 0
7 0
7 0
12 0
7 0
12 0
12 0
7 0
5 0
5 0
5 14 0
5 0
5 14 0
5 14 0
5 0
5 14 0
5 0
11 0
12 15 0
15 0
12 0
11 0
15 0
12 0
15 0
12 15 0
11 0
12 0
15 0
11 0
12 0
11 0
11 0
12 0
15 0
12 15 0
15 0
12 0
15 0
12 0
11 0
12 15 0
12 0
15 0
11 0
12 0
11 0
11 0
15 0
12 15 0
15 0
12 0
12 0
11 0
15 0
15 0
12 0
12 15 0
11 0
12 0
15 0
11 0
11 12 0
12 0
11 0
12 0
11 12 0
11 0
11 12 0
12 0
11 0
7 1 0
7 -1 0
7 0
12 1 0
12 -1 0
12 0
1 7 0
-1 7 0
7 0
6 0
3 0
4 0
3 9 4 0
4 10 3 0
4 10 0
6 0
3 9 0
3 9 6 0
6 0
6 3 0
3 0
4 3 6 9 0
4 10 6 0
6 4 0
4 10 3 6 0
4 0
3 9 0
6 0
4 10 3 0
4 0
4 10 0
6 3 0
6 0
3 9 6 0
6 4 0
3 9 4 0
4 3 6 9 0
4 10 6 0
3 0
4 10 3 6 0
4 3 6 9 0
6 0
3 9 6 0
6 4 0
3 9 4 0
4 10 3 6 0
6 0
4 0
6 3 0
4 10 3 0
3 0
3 9 0
4 10 0
4 10 6 0
4 10 6 0
6 4 0
4 3 6 9 0
3 9 4 0
3 9 0
3 0
4 10 0
4 0
6 0
3 9 6 0
6 3 0
4 10 3 0
4 10 3 6 0
6 0
6 0
4 0
3 0
7 1 0
7 -1 0
7 0
6 0
4 10 0
3 9 4 0
6 0
4 0
4 10 3 0
3 0
3 9 0
6 0
4 0
3 0
7 0
7 0
6 0
3 9 4 0
4 10 3 0
3 0
4 10 0
4 0
6 0
3 9 0
3 0
6 0
4 0
15 0
15 0
12 1 0
12 -1 0
12 0
15 0
15 0
3 9 4 0
4 0
6 0
6 0
3 9 0
4 10 0
4 10 3 0
3 0
4 0
3 0
6 0
13 0
13 0
13 0
13 0
4 0
3 0
4 10 0
3 0
4 10 3 0
3 9 0
4 0
3 9 4 0
3 -1 0
4 -1 0
3 0
4 0
3 9 4 0
3 9 0
3 0
4 10 3 0
4 10 0
4 0
6 0
6 0
4 0
3 0
6 0
4 -9 -10 0
-4 3 -9 0
3 -9 -10 0
-3 4 -10 0
4 0
3 0
3 9 4 0
3 9 0
4 10 3 0
4 10 0
3 0
3 9 0
3 9 4 0
4 0
4 10 3 0
4 10 0
3 0
3 9 4 0
4 10 0
4 0
3 9 0
4 10 3 0
3 9 4 0
3 9 0
4 0
3 0
4 10 0
4 10 3 0
3 0
4 0
15 1 0
15 -1 0
15 0
15 0
7 0
15 0
7 0
15 0
7 0
7 0
15 0
15 0
7 0
7 0
15 0
15 0
7 0
7 0
15 0
15 0
7 0
13 1 0
13 -1 0
13 0
4 10 0
4 10 3 0
4 0
3 0
3 9 4 0
3 9 0
4 10 0
4 10 3 0
4 0
3 0
3 9 4 0
3 9 0
3 0
6 0
4 0
6 3 0
3 9 0
4 3 6 9 0
4 10 3 0
4 10 6 0
3 0
3 9 6 0
4 10 3 6 0
6 0
4 0
4 10 0
3 9 4 0
6 0
6 4 0
6 0
3 0
6 4 0
4 10 3 6 0
4 10 3 0
4 0
4 10 6 0
4 10 0
3 9 6 0
3 9 4 0
6 0
4 3 6 9 0
6 3 0
3 9 0
6 3 0
3 9 4 0
3 9 6 0
4 10 3 0
3 0
4 10 3 6 0
6 0
3 9 0
4 3 6 9 0
6 0
4 0
6 4 0
4 10 0
4 10 6 0
4 10 0
6 0
6 4 0
4 0
4 10 6 0
4 10 3 0
4 3 6 9 0
3 0
6 0
3 9 0
4 10 3 6 0
6 3 0
3 9 4 0
3 9 6 0
1 15 0
-1 15 0
15 0
12 0
12 0
15 0
15 0
15 0
15 0
15 0
15 0
15 0
15 0
15 0
13 1 0
13 -1 0
13 0
3 0
3 9 0
3 0
3 9 0
3 -9 -10 0
4 -9 -10 0
-4 3 -9 0
-3 4 -10 0
4 10 3 1 0
4 10 1 0
3 9 1 0
4 3 1 9 0
4 10 -1 0
4 10 3 -1 0
3 9 -1 0
4 3 -1 9 0
3 0
4 0
12 0
11 0
12 0
12 0
11 0
12 0
11 0
12 0
12 0
12 0
12 0
12 0
12 1 0
12 -1 0
12 0
7 0
12 7 0
12 0
12 0
1 7 0
-1 7 0
7 0
13 0
13 0
13 0
13 0
13 0
13 0
13 0
13 0
13 0
13 0
7 0
7 0
7 0
7 0
7 0
7 0
7 0
7 0
7 0
7 0
7 0
7 0
7 0
7 0
7 0
7 0
12 0
12 0
1 11 0
-1 11 0
11 0
13 1 0
13 -1 0
13 0
1 15 0
-1 15 0
15 0
1 11 0
-1 11 0
11 0
3 0
4 0
3 0
4 10 0
3 9 4 0
3 9 0
4 10 3 0
4 0
4 10 0
4 0
3 9 4 0
3 0
3 9 0
4 10 3 0
3 9 0
4 10 0
3 9 4 0
4 10 3 0
4 0
3 0
3 0
4 10 3 0
4 10 0
3 9 4 0
4 0
3 9 0
3 0
4 0
1 7 0
-1 7 0
7 0
15 0
15 0
15 0
15 0
15 0
15 0
15 0
15 0
15 0
11 0
5 0
5 0
11 0
5 14 0
11 0
11 0
11 0
11 0
5 0
5 14 0
11 0
5 0
11 0
11 0
11 0
5 14 0
5 0
11 0
5 14 0
11 0
11 0
15 0
15 0
13 1 0
13 -1 0
13 0
5 -14 -11 0
11 5 1 0
5 11 14 1 0
5 14 1 0
11 1 0
11 5 -1 0
5 14 -1 0
11 -1 0
5 11 14 -1 0
5 0
11 0
7 1 0
7 -1 0
7 0
7 0
12 0
7 0
7 0
12 0
7 0
7 0
7 0
12 0
12 0
7 0
7 0
5 14 -16 0
5 14 -16 0
7 0
7 0
7 0
7 0
7 0
7 0
7 0
7 0
7 0
1 7 0
-1 7 0
7 0
13 0
13 0
13 0
13 0
13 0
13 0
13 0
13 0
13 0
13 0
1 11 0
1 7 0
-1 11 0
-1 7 0
11 0
7 0
12 0
12 0
12 0
12 0
12 0
12 0
12 0
12 0
12 0
5 0
5 14 0
5 0
15 0
15 0
15 0
15 0
15 0
7 0
7 0
4 0
6 0
4 10 0
3 0
3 9 0
6 0
3 9 4 0
4 10 3 0
4 0
3 0
6 0
1 12 0
-1 12 0
12 0
12 0
12 0
11 0
12 0
11 0
12 0
15 0
15 0
15 0
15 0
15 0
15 0
15 0
15 0
15 0
15 0
7 1 0
7 -1 0
7 0
7 0
7 0
7 -1 0
3 0
6 0
4 0
4 3 6 9 0
6 3 0
4 10 3 0
3 9 6 0
3 9 4 0
4 10 0
6 0
6 0
4 10 3 6 0
3 0
6 4 0
3 9 0
4 0
4 10 6 0
6 4 0
6 0
4 10 3 6 0
4 10 0
4 3 6 9 0
3 9 4 0
3 9 0
6 0
4 10 6 0
6 3 0
4 10 3 0
3 0
3 9 6 0
4 0
6 0
4 0
6 0
4 10 3 0
4 10 6 0
4 10 3 6 0
3 0
3 9 4 0
6 3 0
3 9 0
3 9 6 0
4 10 0
4 3 6 9 0
6 4 0
6 4 0
4 10 6 0
4 3 6 9 0
3 0
4 10 3 6 0
6 0
6 3 0
4 0
3 9 6 0
4 10 0
3 9 0
3 9 4 0
6 0
4 10 3 0
3 0
4 0
6 0
12 0
12 0
12 0
12 0
12 0
12 0
7 0
7 0
5 -14 -11 0
5 11 14 1 0
5 14 1 0
11 1 0
11 5 1 0
5 14 -1 0
5 11 14 -1 0
11 5 -1 0
11 -1 0
5 0
11 0
15 0
15 0
15 0
15 0
15 0
15 0
15 0
15 0
15 0
15 0
15 0
15 0
11 0
11 0
11 0
11 0
11 0
11 0
11 0
11 0
11 0
11 0
11 0
11 0
11 0
11 0
11 0
11 0
7 0
7 0
7 0
7 0
7 0
7 0
7 0
7 0
7 0
7 0
15 1 0
15 -1 0
15 0
7 1 0
7 -1 0
7 0
11 0
11 0
11 0
11 0
11 0
11 0
11 0
11 0
11 0
12 1 0
12 -1 0
12 0
1 15 0
-1 15 0
15 0
1 11 0
-1 11 0
11 0
7 0
7 0
7 0
7 0
7 0
7 0
7 0
7 0
11 1 0
11 -1 0
11 0
13 0
13 0
12 1 0
11 12 1 0
11 1 0
11 12 -1 0
12 -1 0
11 -1 0
11 0
12 0
12 0
12 7 0
12 7 0
12 7 0
7 0
12 0
12 0
7 0
12 0
12 0
7 0
12 0
12 7 0
7 0
12 0
12 7 0
12 7 0
12 7 0
7 0
12 0
12 0
7 0
12 0
12 0
7 0
12 0
12 7 0
7 0
7 0
7 0
5 0
13 0
13 0
5 14 0
5 13 14 0
5 0
5 0
13 0
5 13 0
13 0
5 0
13 0
5 0
13 0
5 13 0
5 13 14 0
13 0
5 14 0
5 14 0
13 0
5 0
13 0
5 13 0
13 0
5 0
5 13 14 0
5 14 0
5 13 14 0
5 13 0
13 0
5 0
13 0
5 0
13 0
5 0
13 0
15 0
15 0
15 0
15 0
11 0
12 1 0
12 -1 0
12 0
11 1 0
11 -1 0
11 0
-8 0
2 0
12 0
-8 0
2 0
12 0
7 0
7 0
7 0
7 0
7 0
7 0
7 0
7 0
7 0
15 0
15 0
15 0
15 0
15 0
15 0
15 0
15 0
15 0
15 0
15 0
15 0
15 0
15 0
5 0
13 0
5 0
13 0
5 13 0
5 13 14 0
5 14 0
13 0
13 0
5 0
5 0
5 13 14 0
13 0
5 13 0
5 14 0
5 0
13 0
13 0
5 0
5 13 0
13 0
13 0
5 14 0
5 0
13 0
5 13 14 0
5 14 0
13 0
5 0
13 0
13 0
5 0
5 13 14 0
5 13 0
5 0
13 0
11 1 0
11 -1 0
11 0
7 0
7 0
-4 3 -9 0
4 -9 -10 0
-3 4 -10 0
3 -9 -10 0
3 9 1 0
4 10 3 1 0
4 10 1 0
4 3 1 9 0
4 3 -1 9 0
3 9 -1 0
4 10 3 -1 0
4 10 -1 0
3 0
4 0
6 0
3 9 0
4 0
6 0
3 9 4 0
3 0
4 10 0
4 10 3 0
6 0
4 0
3 0
11 0
11 0
11 0
11 0
11 0
11 0
11 0
11 0
11 1 0
11 -1 0
11 0
13 0
13 0
13 0
13 0
13 0
13 0
13 0
13 0
13 0
13 0
13 0
13 0
13 0
13 0
13 0
13 0
13 0
13 0
13 0
6 0
3 0
4 0
3 0
3 9 4 0
4 10 0
4 10 3 0
6 0
4 3 6 9 0
6 4 0
4 0
4 10 3 6 0
6 0
3 9 6 0
6 3 0
4 10 6 0
3 9 0
4 10 3 6 0
4 3 6 9 0
6 0
6 0
3 9 6 0
3 9 0
6 3 0
4 0
4 10 0
6 4 0
3 9 4 0
4 10 3 0
4 10 6 0
3 0
4 10 0
4 0
3 9 4 0
4 10 3 0
4 10 6 0
3 0
6 0
3 9 0
4 10 3 6 0
4 3 6 9 0
6 4 0
3 9 6 0
6 3 0
6 0
4 0
6 0
3 0
4 3 6 9 0
4 10 0
6 3 0
4 10 3 6 0
3 9 6 0
3 9 4 0
3 9 0
6 0
4 10 6 0
4 10 3 0
6 4 0
15 1 0
15 -1 0
15 0
1 7 0
-1 7 0
7 0
1 7 0
-1 7 0
7 0
4 0
3 9 0
3 0
4 10 0
3 9 4 0
4 10 3 0
4 10 3 0
4 10 0
3 9 0
3 9 4 0
4 10 3 0
4 10 0
3 9 0
3 9 4 0
6 0
3 0
4 0
6 0
3 9 4 0
3 9 6 0
4 10 0
6 0
4 10 3 0
3 0
6 3 0
4 10 6 0
4 3 6 9 0
3 9 0
4 10 3 6 0
4 0
6 4 0
3 0
6 4 0
4 0
3 9 4 0
4 3 6 9 0
3 9 0
4 10 6 0
4 10 0
4 10 3 6 0
3 9 6 0
4 10 3 0
6 3 0
6 0
6 0
3 9 4 0
4 10 0
6 3 0
6 0
4 10 6 0
3 9 0
6 0
4 10 3 6 0
3 0
4 10 3 0
6 4 0
3 9 6 0
4 0
4 3 6 9 0
6 0
3 9 6 0
3 9 4 0
6 4 0
4 10 6 0
4 3 6 9 0
3 9 0
4 10 0
6 0
3 0
4 0
6 3 0
4 10 3 6 0
4 10 3 0
7 0
7 0
7 0
7 0
7 0
7 0
7 0
7 0
7 0
1 7 0
-1 7 0
7 0
12 0
12 0
12 0
12 0
11 0
11 0
11 0
11 0
11 0
11 0
11 0
11 0
11 0
15 0
15 0
15 0
15 0
15 0
15 0
15 0
15 0
15 0
15 0
15 0
15 0
15 0
15 0
15 0
15 0
15 0
13 1 0
13 -1 0
13 0
11 0
11 0
11 0
11 0
11 0
11 0
11 0
7 0
7 0
7 0
7 0
7 0
7 0
7 0
7 0
7 0
1 15 0
-1 15 0
15 0
15 0
15 1 0
15 -1 0
15 0
7 0
7 0
7 0
7 0
7 0
7 0
7 0
7 0
7 0
7 0
7 0
7 0
7 0
7 -1 0
7 0
7 0
7 0
11 0
11 0
1 11 0
-1 11 0
11 0
1 12 0
1 11 0
-1 12 0
-1 11 0
12 0
11 0
7 0
7 0
7 0
7 0
7 0
7 0
7 0
7 0
7 0
7 0
15 0
15 0
15 0
15 0
12 1 0
12 -1 0
12 0
15 0
15 0
15 1 0
15 -1 0
15 0
1 15 0
-1 15 0
15 0
7 1 0
12 7 1 0
12 1 0
12 7 -1 0
12 -1 0
7 -1 0
7 0
12 0
7 0
7 0
7 0
7 0
7 0
7 0
7 0
7 0
7 0
15 0
15 0
15 0
15 0
15 0
15 0
15 0
13 0
13 0
13 0
13 0
13 0
13 0
13 0
13 0
13 0
13 0
13 0
13 0
13 0
13 0
13 0
13 0
13 0
13 0
13 0
13 0
13 0
13 0
13 0
13 0
13 0
13 0
13 0
13 0
13 0
13 0
13 0
13 0
4 0
6 0
3 0
6 0
4 10 0
3 9 4 0
4 10 6 0
4 0
3 0
6 3 0
6 0
4 10 3 6 0
6 4 0
3 9 0
4 3 6 9 0
4 10 3 0
3 9 6 0
4 10 6 0
4 10 0
3 0
6 0
4 3 6 9 0
6 0
6 3 0
4 10 3 0
4 0
3 9 0
3 9 6 0
3 9 4 0
4 10 3 6 0
6 4 0
4 10 3 6 0
3 9 6 0
4 10 0
6 0
3 9 0
4 0
6 3 0
4 10 6 0
4 10 3 0
4 3 6 9 0
6 0
3 9 4 0
6 4 0
3 0
6 4 0
6 0
4 10 6 0
4 10 3 6 0
4 10 0
4 3 6 9 0
3 9 6 0
4 10 3 0
6 3 0
3 9 0
3 0
4 0
3 9 4 0
6 0
-8 -16 -5 0
-14 -8 -16 0
-2 -16 -5 0
-2 -11 -16 -5 0
-14 -2 -16 0
-2 -16 -5 0
-8 -16 -5 0
-14 -2 -16 0
-14 -8 -16 0
-2 -16 -5 0
15 0
15 0
1 7 0
-1 7 0
7 0
15 1 0
15 -1 0
15 0
3 9 4 0
3 9 0
4 10 0
4 10 3 0
4 10 3 0
3 9 0
4 10 0
3 9 4 0
4 -1 0
4 -1 0
4 3 -1 0
3 -1 0
3 -1 0
4 0
4 10 0
4 10 3 0
3 9 4 0
3 0
3 9 0
4 10 0
3 9 0
4 0
3 0
3 0
4 0
12 0
12 0
12 0
12 0
12 0
12 0
12 0
12 0
12 0
15 1 0
15 -1 0
15 0
4 3 1 9 0
3 9 1 0
4 10 3 1 0
4 10 1 0
3 -1 0
4 -1 0
3 0
3 9 4 0
3 9 0
4 0
4 10 0
4 10 0
4 10 3 0
3 9 0
3 4 0
3 0
4 0
12 0
12 0
7 12 1 0
12 1 0
12 7 -1 0
12 -1 0
12 7 0
12 0
12 1 0
11 1 0
11 12 1 0
12 -1 0
11 -1 0
11 12 -1 0
12 0
11 0
4 -9 -10 0
3 -9 -10 0
-4 3 -9 0
-3 4 -10 0
3 9 1 0
4 3 1 9 0
4 10 1 0
4 10 3 1 0
3 9 -1 0
4 3 -1 9 0
4 10 -1 0
4 10 3 -1 0
3 0
4 0
13 0
13 0
13 0
13 0
13 0
13 0
13 0
13 0
13 0
13 0
13 0
13 0
4 0
3 0
2 0
6 0
6 3 0
3 9 6 0
4 10 6 0
4 10 3 0
4 3 6 9 0
6 0
3 9 0
4 10 3 6 0
4 10 0
6 4 0
3 9 4 0
2 8 0
-1 0
3 0
6 0
2 0
4 0
7 0
7 0
7 0
7 0
7 0
7 0
7 0
7 0
7 0
12 7 0
7 0
7 0
12 0
12 7 0
7 0
12 0
12 7 0
12 0
12 0
7 0
12 7 0
12 7 0
7 0
12 0
12 0
7 0
12 7 0
12 0
7 0
12 0
7 0
12 0
7 0
12 0
12 0
7 0
12 0
7 0
12 7 0
12 0
12 0
7 0
12 7 0
12 7 0
12 0
12 0
12 0
12 0
7 0
7 0
7 0
1 7 0
-1 7 0
7 0
1 11 0
-1 11 0
11 0
15 0
15 0
11 0
11 0
1 12 0
-1 12 0
12 0
4 0
2 0
6 0
3 0
4 0
6 0
2 0
3 0
-1 0
6 0
3 0
4 0
2 0
11 0
12 0
12 0
11 12 0
12 0
11 0
11 0
11 0
12 0
11 12 0
12 0
11 0
12 0
11 0
11 0
12 0
11 12 0
12 0
11 0
11 0
11 12 0
12 0
12 0
11 0
4 10 3 0
3 9 0
3 9 4 0
4 10 0
4 10 3 0
3 9 0
3 9 4 0
4 10 0
3 9 0
6 0
4 10 3 0
4 0
3 0
6 0
3 9 4 0
4 10 0
4 0
3 0
6 0
11 0
11 0
11 0
11 0
11 0
11 0
11 1 0
11 -1 0
11 0
3 0
4 0
3 9 0
3 9 4 0
4 0
4 10 0
3 0
4 10 3 0
3 9 0
3 0
4 10 0
4 0
3 9 4 0
4 10 3 0
3 9 0
4 0
4 10 3 0
3 9 4 0
4 10 0
3 0
3 0
4 0
3 9 4 0
3 9 0
4 10 0
4 10 3 0
3 0
4 0
4 10 3 0
6 0
4 10 0
3 9 0
3 9 4 0
6 0
4 0
3 0
6 0
4 0
3 0
12 0
12 0
12 0
15 0
15 0
15 0
15 0
15 0
15 0
15 0
15 0
15 0
15 0
12 7 1 0
7 1 0
12 1 0
7 -1 0
12 7 -1 0
12 -1 0
7 0
12 0
1 11 0
-1 11 0
11 0
1 15 0
-1 15 0
15 0
15 0
15 0
15 0
15 0
15 0
15 0
15 0
15 0
15 0
15 0
15 0
15 0
15 0
4 -9 -10 0
-3 4 -10 0
-4 3 -9 0
3 -9 -10 0
3 9 1 0
4 10 3 1 0
4 10 1 0
4 3 1 9 0
4 3 -1 9 0
4 10 3 -1 0
4 10 -1 0
3 9 -1 0
3 0
4 0
5 0
13 0
5 0
13 0
13 0
5 0
13 0
5 13 0
5 14 0
5 13 14 0
13 0
5 0
13 0
13 0
5 0
5 14 0
5 13 14 0
5 13 0
5 13 0
13 0
5 14 0
5 13 14 0
13 0
13 0
5 0
5 0
13 0
13 0
5 14 0
5 13 0
5 0
13 0
5 13 14 0
5 0
13 0
5 0
13 1 0
13 -1 0
13 0
15 1 0
15 -1 0
15 0
12 7 0
12 7 0
15 1 0
15 -1 0
15 0
3 0
2 0
2 -4 -8 -9 -6 0
4 0
2 -3 -8 -10 -6 0
-8 0
2 -4 -3 -8 -6 0
2 -8 -9 -10 -6 0
6 0
-1 0
3 0
4 0
6 0
11 12 1 0
12 1 0
11 1 0
12 -1 0
11 -1 0
11 12 -1 0
11 0
12 0
3 0
4 0
3 9 4 0
3 0
4 10 3 0
4 10 0
3 9 0
4 0
3 9 0
3 0
4 0
4 10 3 0
3 9 4 0
4 10 0
3 0
3 9 4 0
4 10 0
4 0
4 10 3 0
3 9 0
3 9 0
3 9 4 0
3 0
4 10 3 0
4 10 0
4 0
3 0
4 0
11 0
1 7 0
-1 7 0
7 0
-3 4 -10 0
3 -9 -10 0
-4 3 -9 0
4 -9 -10 0
4 10 1 0
4 3 1 9 0
4 10 3 1 0
3 9 1 0
4 3 -1 9 0
3 9 -1 0
4 10 3 -1 0
4 10 -1 0
3 0
4 0
5 0
13 0
5 14 0
5 14 0
5 0
11 0
11 0
11 0
11 0
11 0
11 0
13 0
13 0
11 0
13 0
13 0
13 0
11 0
5 0
11 0
5 14 0
11 0
5 0
11 0
11 0
5 14 0
11 0
5 0
13 0
5 0
11 0
11 0
11 0
13 0
11 0
5 14 0
11 0
13 0
11 0
5 14 0
5 0
5 14 0
11 0
13 0
5 0
5 0
5 0
5 0
5 0
11 0
11 0
13 0
15 1 0
15 -1 0
15 0
7 1 0
7 -1 0
7 0
15 1 0
15 -1 0
15 0
11 0
11 0
1 11 0
-1 11 0
11 0
11 0
11 0
12 0
12 0
12 0
11 0
12 0
11 0
12 0
12 0
11 0
11 0
11 0
11 0
12 0
12 0
11 0
12 0
6 0
4 6 0
4 0
3 0
4 10 0
4 10 3 6 0
3 6 9 0
4 10 6 0
6 0
2 0
3 9 0
2 8 0
4 10 3 0
3 6 0
4 3 6 9 0
4 3 9 0
-1 0
3 9 0
3 0
6 0
4 0
3 9 4 0
6 0
4 10 3 0
4 10 0
6 0
3 0
4 0
7 0
7 0
1 12 0
1 11 0
-1 12 0
-1 11 0
12 0
11 0
7 1 0
7 -1 0
7 0
15 0
15 0
15 0
15 0
15 0
15 0
15 0
15 0
15 0
15 0
15 0
11 12 1 0
12 1 0
11 1 0
12 -1 0
11 12 -1 0
11 -1 0
11 0
12 0
3 0
4 0
6 0
6 0
6 0
3 0
4 0
4 10 6 0
3 9 4 0
3 9 0
4 3 6 9 0
4 10 3 0
6 4 0
4 10 0
6 3 0
4 10 3 6 0
3 9 6 0
4 10 6 0
4 3 6 9 0
4 0
3 9 6 0
3 9 4 0
4 10 0
3 9 0
4 10 3 6 0
3 0
6 3 0
6 0
6 4 0
6 0
4 10 3 0
4 10 6 0
4 10 3 6 0
3 9 4 0
6 0
4 3 6 9 0
6 3 0
6 4 0
6 0
3 0
4 10 3 0
3 9 6 0
3 9 0
4 10 0
4 0
6 3 0
6 0
3 0
4 10 6 0
4 3 6 9 0
3 9 4 0
6 4 0
4 0
4 10 3 0
3 9 6 0
4 10 0
4 10 3 6 0
6 0
3 9 0
6 0
4 0
3 0
12 0
12 0
12 0
12 0
12 0
12 0
12 0
12 0
12 0
15 0
7 0
15 0
15 7 0
7 0
15 0
15 0
7 0
7 0
15 7 0
15 0
7 0
15 0
7 0
15 7 0
15 7 0
15 0
15 0
7 0
7 0
7 0
15 0
15 1 0
15 -1 0
15 0
-1 0
12 0
12 0
11 0
12 0
12 0
11 12 0
11 0
12 0
11 0
7 0
7 0
7 0
7 0
7 0
7 0
7 0
7 0
7 0
7 0
7 0
7 0
7 0
7 0
7 0
7 0
7 0
7 0
7 0
7 0
7 0
12 0
12 0
7 0
12 7 0
12 0
12 0
12 7 0
12 0
12 0
12 7 0
7 0
7 0
12 7 0
7 0
7 0
7 0
7 0
7 0
12 7 0
12 0
12 7 0
7 0
7 0
12 0
12 0
7 0
12 0
7 0
12 0
7 0
12 0
12 7 0
12 7 0
12 0
12 0
7 0
12 0
7 0
12 0
7 0
12 7 0
7 0
7 0
12 0
12 0
12 0
12 0
7 0
12 7 0
7 0
7 0
12 0
12 0
12 0
7 0
7 0
12 0
12 0
12 0
12 7 0
12 7 0
12 7 0
11 0
12 7 0
12 0
12 0
7 0
12 0
7 0
7 0
7 0
12 0
7 0
12 7 0
12 0
12 0
7 0
7 0
12 7 0
12 7 0
12 0
12 7 0
12 0
11 12 0
7 0
12 7 0
7 0
7 0
12 0
12 0
12 0
12 7 0
12 7 0
12 0
12 0
12 0
12 0
12 0
12 0
12 0
12 0
7 0
7 0
11 12 0
12 0
12 0
7 0
12 7 0
7 0
12 7 0
12 0
12 7 0
7 0
12 0
7 0
12 0
7 0
12 7 0
7 0
12 0
7 0
7 0
12 0
12 0
7 0
7 0
12 0
7 0
12 0
7 0
12 0
7 0
12 0
12 0
12 0
7 0
12 0
7 0
12 0
7 0
11 0
12 7 0
12 7 0
12 7 0
12 0
12 0
7 0
12 7 0
12 0
12 7 0
7 0
12 0
12 7 0
12 0
7 0
12 0
12 0
12 7 0
12 0
12 7 0
12 0
12 7 0
7 0
7 0
12 0
12 0
12 7 0
12 0
12 0
12 0
7 0
7 0
12 0
12 0
12 0
7 0
12 0
12 7 0
12 0
12 7 0
7 0
12 7 0
12 0
7 0
12 7 0
7 0
7 0
12 0
12 0
7 0
12 0
12 7 0
7 0
12 0
7 0
12 7 0
12 7 0
12 0
12 0
12 0
12 0
7 0
12 0
7 0
12 0
12 0
7 0
12 0
12 0
12 0
12 0
7 0
12 0
7 0
7 0
7 0
7 0
12 0
11 0
12 0
7 0
7 0
12 0
12 0
12 0
7 0
7 0
12 0
12 0
12 0
7 0
12 0
12 0
12 0
7 0
12 0
7 0
7 0
12 0
12 0
12 0
7 0
12 0
12 0
12 0
7 0
12 0
12 0
12 0
12 0
12 0
12 0
7 0
12 0
7 0
7 0
7 0
12 0
12 0
7 0
7 0
12 0
12 0
12 0
12 0
12 0
7 0
7 0
7 0
7 0
12 0
12 0
7 0
12 0
12 7 0
12 7 0
12 0
12 7 0
12 7 0
7 0
12 0
12 0
12 0
12 7 0
12 7 0
12 7 0
12 7 0
12 7 0
7 0
12 7 0
12 0
7 0
7 0
7 0
12 0
12 0
7 0
12 0
12 0
12 0
12 7 0
7 0
7 0
12 0
12 0
12 0
7 0
7 0
12 0
12 0
7 0
12 0
7 0
7 0
12 0
12 0
12 7 0
12 0
7 0
12 7 0
12 7 0
7 0
11 12 0
12 7 0
11 0
12 0
7 0
12 0
12 0
7 0
7 0
12 0
12 0
7 0
12 0
12 0
7 0
12 0
12 7 0
12 7 0
12 0
12 7 0
12 0
12 0
7 0
12 0
12 0
12 0
7 0
7 0
12 0
12 0
7 0
12 0
12 0
7 0
12 0
12 0
7 0
12 0
7 0
12 0
7 0
12 0
7 0
7 0
7 0
12 7 0
12 0
12 0
7 0
12 0
7 0
12 0
12 7 0
7 0
12 7 0
12 0
7 0
12 0
7 0
7 0
12 0
12 0
12 0
7 0
12 0
12 0
12 0
7 0
12 0
11 0
7 0
12 0
12 0
12 0
12 0
12 0
12 0
12 0
7 0
7 0
7 0
7 0
12 0
7 0
12 0
12 0
12 0
12 0
12 0
7 0
12 0
12 0
7 0
12 0
12 0
12 0
7 0
12 0
7 0
12 0
12 0
7 0
7 0
12 0
7 0
12 0
12 0
12 0
7 0
7 0
7 0
7 0
12 0
7 0
7 0
12 0
12 0
7 0
12 0
7 0
7 0
12 0
12 0
12 0
12 0
3 9 4 0
3 0
6 0
4 10 0
4 0
6 0
4 10 3 0
3 9 0
3 0
4 0
6 0
3 9 4 0
4 0
4 10 0
3 9 0
4 10 3 0
6 0
3 0
6 0
11 0
12 0
11 0
12 0
4 0
11 0
6 0
3 0
11 0
3 9 0
3 9 6 0
11 0
4 0
3 9 4 0
3 0
4 10 6 0
6 0
6 4 0
6 0
4 3 6 9 0
4 10 3 0
6 3 0
4 10 3 6 0
4 10 0
6 3 0
4 10 3 0
3 9 0
3 9 4 0
3 9 6 0
6 0
4 10 6 0
11 0
3 0
4 10 3 6 0
6 4 0
4 0
11 0
6 0
4 10 0
4 3 6 9 0
11 0
6 4 0
4 10 6 0
6 3 0
4 10 3 0
11 0
3 9 6 0
6 0
6 0
3 9 0
4 3 6 9 0
4 10 3 6 0
3 0
4 0
3 9 4 0
4 10 0
4 10 6 0
3 9 6 0
6 3 0
4 3 6 9 0
6 0
3 0
3 9 0
4 10 0
4 10 3 0
3 9 4 0
11 0
11 0
4 0
6 4 0
4 10 3 6 0
6 0
7 0
7 0
7 0
7 0
7 0
7 13 0
13 7 0
7 13 0
13 7 0
7 13 0
7 13 0
13 7 0
7 13 0
13 7 0
13 7 0
7 13 0
13 7 0
7 13 0
7 13 0
13 1 0
13 -1 0
13 0
1 11 0
-1 11 0
11 0
11 0
11 0
11 0
11 0
11 0
11 0
11 0
11 0
11 0
11 0
11 0
11 0
11 0
11 0
11 0
11 0
11 0
11 0
11 0
11 0
11 0
11 0
11 0
11 0
11 0
11 0
11 0
11 0
11 0
11 0
11 0
11 0
11 0
11 0
11 0
11 0
11 0
11 0
11 0
11 0
11 0
11 0
11 0
11 0
11 0
11 0
11 0
11 0
11 0
11 0
11 0
11 0
11 0
11 0
11 0
11 0
11 0
11 0
11 0
11 0
11 0
11 0
11 0
11 0
11 0
11 0
11 0
11 0
11 0
11 0
7 1 0
7 -1 0
7 0
15 1 0
15 -1 0
15 0
13 0
13 0
13 0
13 0
12 0
12 0
7 0
7 0
13 1 0
13 -1 0
13 0
11 0
11 0
15 0
15 0
15 0
15 0
15 0
15 0
15 0
15 0
15 0
12 0
12 0
12 0
12 0
12 0
12 0
12 0
12 0
12 0
11 0
11 0
11 0
11 0
11 0
11 0
11 0
11 0
11 0
11 0
11 0
1 12 0
1 7 0
-1 12 0
-1 7 0
12 0
7 0
13 1 0
13 -1 0
13 0
1 7 0
-1 7 0
7 0
15 0
15 0
15 0
15 0
15 0
15 0
15 -1 0
15 0
15 0
15 0
11 0
11 0
4 10 3 0
3 9 0
3 9 4 0
4 0
4 10 0
6 0
3 0
6 0
3 0
6 0
4 0
11 12 1 0
12 1 0
11 1 0
11 -1 0
11 12 -1 0
12 -1 0
12 0
11 0
3 0
4 0
3 0
4 10 3 0
3 9 0
4 0
4 10 0
3 9 4 0
4 -1 0
3 -1 0
3 0
4 0
15 1 0
15 -1 0
15 0
7 0
7 0
7 0
7 0
7 0
7 0
7 0
7 0
7 0
12 1 0
12 -1 0
12 0
1 12 0
1 7 0
-1 12 0
-1 7 0
12 0
7 0
5 0
2 0
11 0
11 0
2 8 0
5 14 0
11 0
2 0
11 0
2 8 0
5 14 0
2 0
11 0
11 0
2 8 0
11 0
5 14 0
2 0
5 14 0
2 0
2 8 0
11 0
11 0
5 0
2 0
11 0
1 7 0
-1 7 0
7 0
7 0
7 0
7 0
7 0
12 0
12 0
12 7 0
12 7 0
7 0
12 0
7 0
12 0
7 0
7 0
12 0
12 0
7 0
12 7 0
7 0
7 0
12 0
12 0
12 0
12 0
11 12 0
12 7 0
7 0
12 0
7 0
12 0
7 0
11 0
12 7 0
12 7 0
12 7 0
12 0
7 0
12 0
12 0
12 0
12 0
7 0
12 0
7 0
12 7 0
12 0
12 7 0
7 0
12 0
7 0
7 0
12 0
7 0
12 7 0
12 0
7 0
12 0
7 0
12 0
12 0
12 0
12 0
12 7 0
12 0
12 7 0
12 0
12 7 0
7 0
12 7 0
7 0
7 0
12 7 0
7 0
12 0
12 7 0
7 0
12 0
12 0
12 0
12 0
12 7 0
7 0
12 0
12 7 0
7 0
12 0
12 7 0
12 0
7 0
12 0
12 0
7 0
7 0
12 7 0
12 0
7 0
12 0
12 0
12 7 0
12 0
12 0
7 0
7 0
12 0
12 7 0
7 0
12 7 0
12 0
12 0
12 7 0
12 7 0
12 0
7 0
12 0
7 0
7 0
12 0
12 0
7 0
12 7 0
12 0
12 7 0
12 0
7 0
7 0
7 0
12 7 0
12 0
12 0
12 0
7 0
12 0
7 0
12 0
12 0
12 7 0
12 0
12 0
11 0
12 0
7 0
12 0
12 0
12 0
7 0
12 7 0
7 0
12 7 0
12 0
12 7 0
7 0
12 0
7 0
7 0
12 0
12 0
12 0
7 0
12 0
7 0
12 0
12 7 0
7 0
7 0
12 7 0
12 7 0
12 0
12 0
12 0
7 0
7 0
12 0
12 0
12 0
12 7 0
7 0
7 0
12 0
12 7 0
7 0
7 0
12 0
7 0
12 0
12 7 0
12 0
12 7 0
7 0
12 0
7 0
12 0
12 7 0
12 0
7 0
12 7 0
12 0
12 0
7 0
7 0
12 7 0
12 0
7 0
7 0
12 0
11 12 0
12 0
12 0
12 0
12 0
12 0
12 0
7 0
12 0
7 0
12 0
12 0
12 0
7 0
12 0
12 0
12 0
7 0
12 0
12 0
12 0
12 0
7 0
12 0
7 0
12 0
7 0
7 0
12 0
7 0
7 0
12 0
12 0
7 0
12 0
12 0
7 0
7 0
12 0
12 0
12 0
12 0
7 0
12 0
12 0
12 0
12 0
7 0
12 0
12 0
7 0
11 0
7 0
7 0
12 0
12 0
12 0
7 0
12 0
12 0
7 0
7 0
7 0
7 0
7 0
12 0
12 0
7 0
12 0
7 0
7 0
7 0
7 0
12 0
12 0
7 0
7 0
7 0
12 0
7 0
12 7 0
12 7 0
12 0
12 7 0
7 0
7 0
7 0
12 0
12 0
12 7 0
12 0
7 0
7 0
7 0
12 0
12 0
12 0
12 0
12 0
12 7 0
12 0
7 0
7 0
12 0
12 0
12 0
11 12 0
7 0
12 7 0
12 7 0
12 0
7 0
12 7 0
12 7 0
7 0
7 0
12 7 0
7 0
12 0
12 0
12 0
12 0
12 7 0
12 7 0
7 0
12 0
12 0
12 0
12 0
12 7 0
7 0
7 0
11 0
12 0
12 0
12 0
12 0
7 0
12 0
12 0
7 0
12 0
7 0
12 0
12 0
12 0
12 0
12 7 0
12 0
12 0
12 0
12 0
12 7 0
7 0
12 0
12 7 0
7 0
7 0
7 0
12 7 0
12 7 0
7 0
7 0
12 7 0
12 0
12 7 0
7 0
12 0
7 0
12 0
12 7 0
12 0
7 0
12 0
12 0
12 0
12 0
12 0
12 0
12 0
12 0
12 0
7 0
12 0
12 0
7 0
7 0
7 0
12 0
12 0
7 0
7 0
12 0
12 0
7 0
12 0
11 0
12 0
7 0
7 0
7 0
12 0
7 0
12 0
12 0
12 0
12 0
7 0
7 0
12 0
12 0
7 0
7 0
7 0
7 0
12 0
7 0
12 0
7 0
7 0
12 0
7 0
12 0
7 0
12 0
12 0
12 0
12 0
12 0
7 0
7 0
12 0
12 0
12 0
12 0
12 0
7 0
12 0
12 0
12 0
7 0
7 0
12 0
12 0
12 0
3 0
4 0
4 10 1 0
4 10 3 1 0
3 9 1 0
4 3 1 9 0
4 3 -1 9 0
4 10 -1 0
3 9 -1 0
4 10 3 -1 0
3 0
4 0
1 11 0
-1 11 0
11 0
6 3 0
4 3 6 9 0
3 9 6 0
4 10 3 0
3 9 4 0
6 4 0
3 9 0
4 10 6 0
6 0
4 10 3 6 0
4 10 0
4 10 0
6 0
4 10 3 0
4 0
3 9 0
4 3 6 9 0
6 4 0
3 9 0
3 9 4 0
4 10 6 0
6 0
3 0
4 10 3 6 0
6 3 0
4 10 3 0
3 9 4 0
6 0
3 9 6 0
4 10 0
-3 4 -10 0
4 -9 -10 0
-4 3 -9 0
3 -9 -10 0
4 3 1 9 0
3 9 1 0
4 10 3 1 0
4 10 1 0
4 3 -1 9 0
4 10 3 -1 0
4 10 -1 0
3 9 -1 0
3 0
4 0
12 0
12 0
12 0
12 0
12 0
12 0
12 0
12 0
12 0
1 11 0
-1 11 0
11 0
7 0
12 7 0
12 0
7 0
12 7 0
12 0
6 0
4 0
3 0
2 0
6 3 0
6 4 0
6 0
4 10 0
4 3 6 9 0
3 9 0
4 10 3 6 0
4 10 3 0
4 10 6 0
3 9 4 0
3 9 6 0
2 8 0
-1 0
3 0
4 0
2 0
6 0
1 12 0
-1 12 0
12 0
7 0
7 0
12 7 0
12 7 0
12 7 0
7 0
12 0
12 0
7 0
12 0
12 7 0
7 0
7 0
12 0
7 0
7 0
12 0
12 0
7 0
12 0
12 0
11 0
7 0
7 0
12 0
12 0
7 0
12 0
12 0
7 0
12 0
12 0
12 0
12 0
12 7 0
7 0
7 0
7 0
12 0
12 7 0
12 0
12 0
12 0
12 7 0
12 7 0
12 0
7 0
7 0
7 0
12 0
12 0
7 0
12 7 0
7 0
7 0
12 0
12 7 0
7 0
12 0
12 0
12 7 0
12 7 0
12 0
7 0
11 12 0
7 0
12 7 0
12 7 0
7 0
12 7 0
12 0
12 0
12 0
12 0
12 7 0
12 0
7 0
7 0
12 7 0
12 7 0
12 0
7 0
7 0
12 0
12 0
12 0
12 7 0
12 7 0
7 0
12 0
7 0
12 0
12 0
12 0
12 0
12 0
12 0
7 0
7 0
12 0
12 0
7 0
12 7 0
12 0
12 7 0
7 0
7 0
12 0
7 0
12 0
12 0
7 0
12 0
7 0
12 7 0
7 0
7 0
7 0
7 0
7 0
12 7 0
12 7 0
7 0
12 0
12 0
12 7 0
12 0
12 0
12 0
7 0
12 0
12 0
12 0
12 7 0
7 0
12 0
12 7 0
12 0
12 0
7 0
7 0
7 0
12 7 0
12 0
7 0
12 0
7 0
12 0
12 7 0
7 0
12 0
12 0
12 7 0
12 7 0
12 7 0
7 0
12 0
7 0
12 0
7 0
12 0
12 0
7 0
7 0
12 0
12 0
12 7 0
11 12 0
12 0
12 7 0
12 0
7 0
12 0
12 0
7 0
7 0
12 0
12 7 0
12 7 0
12 0
7 0
12 7 0
7 0
11 0
12 7 0
12 0
12 7 0
12 0
7 0
7 0
12 0
12 0
7 0
12 0
12 0
12 0
12 0
12 0
12 7 0
7 0
12 7 0
12 0
12 0
7 0
12 0
12 0
12 0
7 0
7 0
12 0
12 0
12 0
11 0
12 0
7 0
12 0
7 0
12 0
12 0
12 0
12 0
7 0
7 0
7 0
12 0
7 0
7 0
12 0
12 0
7 0
7 0
12 0
12 0
7 0
12 0
12 0
7 0
12 0
7 0
12 0
7 0
12 0
12 0
12 0
12 0
12 0
12 0
7 0
7 0
12 0
12 0
7 0
12 0
12 0
12 0
7 0
7 0
12 0
7 0
7 0
12 0
12 0
7 0
7 0
7 0
7 0
12 0
12 0
7 0
12 0
12 0
12 0
12 0
12 0
12 0
7 0
12 0
12 0
7 0
12 7 0
12 0
12 7 0
12 0
12 0
12 0
12 7 0
12 0
11 0
7 0
7 0
7 0
7 0
12 7 0
12 0
12 0
7 0
12 0
12 0
7 0
12 0
12 0
12 7 0
12 0
7 0
7 0
12 7 0
7 0
12 0
7 0
12 0
7 0
7 0
7 0
12 0
7 0
12 0
12 0
12 7 0
7 0
12 0
12 0
7 0
12 0
7 0
7 0
12 0
7 0
11 12 0
12 0
12 0
7 0
12 0
7 0
7 0
12 0
7 0
12 7 0
7 0
12 0
12 0
12 0
7 0
7 0
12 0
12 0
12 7 0
12 7 0
12 0
7 0
12 7 0
7 0
12 0
12 0
7 0
7 0
12 0
12 7 0
12 7 0
12 0
12 0
7 0
12 0
12 7 0
12 7 0
12 7 0
12 0
12 0
7 0
12 0
7 0
12 7 0
12 0
12 0
12 7 0
12 0
12 7 0
12 7 0
12 0
12 7 0
12 0
12 0
7 0
7 0
12 0
12 0
7 0
12 0
7 0
7 0
7 0
12 0
12 0
12 0
12 0
7 0
12 0
12 0
7 0
12 0
12 0
12 0
7 0
12 0
12 0
7 0
12 0
12 0
12 0
12 0
7 0
12 0
12 0
7 0
12 0
7 0
12 0
7 0
7 0
12 0
7 0
12 0
7 0
7 0
7 0
12 0
12 0
7 0
12 0
12 0
7 0
7 0
12 0
12 0
12 0
12 0
7 0
12 0
11 0
12 0
12 0
12 0
12 0
7 0
12 0
7 0
7 0
7 0
12 0
7 0
12 0
12 0
12 0
7 0
12 0
12 0
7 0
12 0
12 0
11 0
11 0
12 0
12 0
11 0
12 0
11 0
12 0
11 0
12 0
11 0
12 0
11 0
11 0
11 0
12 0
12 0
11 0
12 0
4 10 0
4 10 0
3 9 4 0
3 9 0
3 9 0
4 10 3 0
4 0
4 10 3 0
4 10 0
3 0
3 9 4 0
4 0
3 9 0
4 10 3 0
3 9 0
4 10 0
3 9 0
4 10 0
4 3 9 0
3 9 4 0
4 10 3 0
3 0
4 10 3 0
4 3 9 0
4 3 9 0
4 10 3 0
4 10 0
4 10 0
3 9 0
4 0
3 9 0
4 0
3 9 4 0
4 10 3 0
3 9 0
3 9 4 0
3 9 0
3 9 4 0
3 0
4 10 3 0
4 10 3 0
3 9 0
4 3 9 0
4 10 3 0
4 10 0
4 10 0
3 0
4 10 0
4 0
4 0
3 0
4 0
3 0
3 0
4 0
3 0
3 0
4 0
4 10 3 0
3 9 0
4 3 9 0
4 10 3 0
3 9 0
3 9 4 0
4 10 3 0
4 0
4 10 0
3 9 4 0
3 9 0
4 0
4 10 0
4 10 0
3 0
4 3 9 0
4 0
3 9 0
4 10 3 0
4 10 0
3 9 0
3 9 0
4 10 0
3 0
4 10 3 0
4 10 0
3 0
3 9 4 0
3 0
4 0
4 0
4 0
4 0
3 0
4 0
4 0
3 0
3 0
3 0
3 0
13 1 0
13 -1 0
13 0
12 0
12 0
12 0
12 0
12 0
12 0
12 0
12 0
12 0
12 0
7 0
13 0
7 0
13 0
13 0
7 0
13 0
7 0
7 0
13 0
13 0
7 0
7 0
13 0
13 0
7 0
1 11 0
-1 11 0
11 0
7 0
7 0
7 0
7 0
7 0
7 0
7 0
7 0
7 0
15 0
15 0
15 0
15 0
11 0
11 0
11 0
11 0
11 0
11 0
11 0
11 0
11 0
11 0
11 0
11 0
11 0
12 0
12 0
12 0
12 0
12 0
12 0
12 0
12 0
12 0
12 0
4 3 6 9 0
3 9 4 0
3 9 0
3 9 6 0
4 10 0
6 4 0
6 3 0
6 0
4 10 6 0
4 10 3 0
4 10 3 6 0
4 3 6 9 0
3 9 4 0
3 9 0
3 9 6 0
4 10 0
6 4 0
6 3 0
6 0
4 10 6 0
4 10 3 0
4 10 3 6 0
11 0
11 0
15 0
15 0
15 0
15 0
15 0
15 0
15 0
15 0
15 0
15 0
15 -1 0
15 0
15 0
15 0
15 0
15 0
15 0
15 0
15 0
15 0
15 0
15 0
15 0
15 0
15 0
15 0
15 0
15 0
15 0
15 0
15 0
15 0
15 0
15 0
15 0
15 0
15 0
15 0
15 0
15 0
15 0
15 0
15 0
15 0
15 0
15 0
15 0
15 0
15 0
15 0
15 0
15 0
15 0
15 0
15 0
15 0
15 0
15 0
15 0
11 0
11 0
1 15 0
-1 15 0
15 0
13 1 0
13 -1 0
13 0
13 1 0
13 -1 0
13 0
3 9 0
3 0
4 10 3 0
6 0
3 9 4 0
6 0
4 0
4 10 0
4 0
3 0
6 0
12 0
12 0
4 -9 -10 0
3 -9 -10 0
-4 3 -9 0
-3 4 -10 0
4 10 1 0
4 3 1 9 0
3 9 1 0
4 10 3 1 0
3 9 -1 0
4 10 -1 0
4 10 3 -1 0
4 3 -1 9 0
3 0
4 0
11 0
5 0
11 0
11 5 0
5 0
5 14 0
11 0
5 14 11 0
11 0
5 14 11 0
5 0
11 5 0
11 0
5 14 0
11 0
5 0
11 0
11 5 0
5 14 11 0
11 0
5 14 0
11 0
5 14 0
5 0
11 5 0
5 14 11 0
11 0
11 0
5 0
15 1 0
15 -1 0
15 0
11 0
1 15 0
-1 15 0
15 0
3 9 0
3 9 0
3 9 4 0
4 10 0
4 10 0
3 0
4 10 3 0
4 10 0
3 9 0
4 10 3 0
4 0
4 10 3 0
4 3 9 0
3 9 4 0
4 10 3 0
3 9 0
4 10 0
4 10 3 0
4 0
4 3 9 0
3 9 0
3 9 4 0
3 0
3 9 0
4 10 0
4 10 3 0
4 10 0
3 9 4 0
3 0
4 0
3 0
3 0
4 0
4 0
3 0
3 0
4 10 0
3 9 4 0
3 9 0
4 10 0
4 10 0
4 10 3 0
4 10 3 0
3 9 0
4 0
4 10 3 0
3 9 4 0
4 3 9 0
3 9 0
4 0
4 10 0
3 9 0
4 0
4 0
3 0
3 0
4 0
4 0
3 0
3 0
7 0
7 0
7 0
7 0
7 0
7 0
7 0
7 0
7 0
7 0
7 0
7 0
7 0
7 0
7 0
7 0
7 0
7 0
1 12 0
1 11 0
-1 12 0
-1 11 0
12 0
11 0
13 1 0
13 -1 0
13 0
15 1 0
15 -1 0
15 0
1 12 0
-1 12 0
12 0
7 0
7 0
15 7 0
15 0
15 0
15 0
7 0
15 0
15 7 0
7 0
15 7 0
15 0
15 0
7 0
7 0
15 7 0
15 0
7 0
15 0
7 0
7 0
15 0
4 0
6 0
3 0
3 0
4 0
6 0
3 9 4 0
4 10 3 0
6 0
4 10 0
3 9 0
3 0
3 9 0
4 10 3 0
4 10 0
4 0
6 0
6 0
3 9 4 0
4 10 3 0
4 0
3 9 4 0
6 0
6 0
3 0
3 9 0
4 10 0
3 9 0
3 9 4 0
3 0
6 0
4 10 3 0
4 10 0
6 0
4 0
4 0
6 0
3 0
12 1 0
12 -1 0
12 0
3 0
6 0
4 0
4 10 6 0
6 0
6 3 0
4 3 6 9 0
6 4 0
4 10 0
3 9 6 0
4 0
3 9 4 0
4 10 3 6 0
4 10 3 0
6 0
3 0
3 9 0
3 0
4 0
4 10 3 0
4 10 3 6 0
6 0
3 9 0
3 9 6 0
4 3 6 9 0
6 0
3 9 4 0
6 4 0
4 10 6 0
4 10 0
6 3 0
4 0
6 4 0
3 9 4 0
4 10 6 0
3 9 6 0
4 3 6 9 0
6 0
3 9 0
4 10 3 0
6 3 0
6 0
3 0
4 10 3 6 0
4 10 0
6 0
4 10 0
6 3 0
4 10 3 0
6 0
4 10 6 0
3 9 0
3 9 4 0
4 3 6 9 0
3 9 6 0
6 4 0
4 10 3 6 0
3 0
4 0
3 0
4 0
6 0
12 0
15 0
12 0
11 0
15 0
11 0
15 0
12 0
11 0
11 0
15 0
7 0
11 0
11 0
11 0
11 0
13 0
11 0
12 0
11 0
15 0
7 0
15 0
11 0
12 0
15 0
15 0
11 0
11 0
11 0
11 0
11 0
12 0
15 0
15 0
15 0
11 0
12 0
15 0
12 0
7 0
7 0
11 0
13 0
11 0
11 0
11 0
11 0
15 0
11 0
15 0
15 0
15 0
15 0
11 0
12 0
12 0
11 0
13 0
15 0
7 0
7 0
11 0
11 0
13 0
15 0
12 0
12 0
11 0
12 0
12 0
15 0
11 0
11 0
11 0
11 0
11 0
7 0
15 0
15 0
11 0
11 0
15 0
15 0
15 0
11 0
15 0
13 0
7 0
15 0
12 0
15 0
11 0
11 0
15 0
11 0
12 0
11 0
15 0
15 0
15 0
1 15 0
-1 15 0
15 0
15 1 0
15 -1 0
15 0
1 12 0
1 11 0
-1 12 0
-1 11 0
12 0
11 0
7 0
7 0
7 0
7 0
7 0
7 0
7 0
7 0
7 0
7 1 0
7 -1 0
7 0
1 11 0
-1 11 0
11 0
11 0
11 0
11 0
11 0
11 0
11 0
11 0
11 0
11 0
3 0
2 0
6 0
4 0
4 10 6 0
6 4 0
6 3 0
3 9 6 0
4 10 3 6 0
3 9 0
6 0
3 9 4 0
2 8 0
4 3 6 9 0
4 10 0
4 10 3 0
-1 0
4 0
3 0
2 0
6 0
1 12 0
1 11 0
-1 12 0
-1 11 0
12 0
11 0
7 0
12 0
7 0
12 0
7 1 0
7 -1 0
7 0
1 7 0
-1 7 0
7 0
15 0
15 13 0
13 0
13 15 0
15 13 0
13 15 0
15 0
13 0
15 -1 0
15 13 -1 0
2 15 -1 0
2 13 -1 0
15 -1 0
13 -1 0
15 0
13 15 0
15 13 0
15 0
15 0
13 0
13 0
15 0
15 0
5 14 0
5 14 0
6 0
3 0
4 0
4 10 0
4 10 3 0
3 9 0
3 0
6 0
6 0
4 0
3 9 4 0
3 0
3 9 4 0
6 0
6 0
3 9 0
4 0
4 10 0
4 10 3 0
3 9 4 0
6 0
6 0
3 0
4 10 0
3 9 0
4 0
4 10 3 0
4 10 3 0
3 0
3 9 4 0
4 10 0
6 0
4 0
3 9 0
6 0
6 4 0
11 6 0
6 0
11 3 0
3 0
11 4 0
6 3 0
4 0
3 4 0
3 0
6 0
4 0
1 15 0
-1 15 0
15 0
4 10 3 0
3 9 0
4 10 3 0
3 9 4 0
3 9 0
3 9 4 0
4 10 0
4 10 0
3 9 4 0
4 10 0
4 10 3 0
3 9 0
4 10 3 0
3 9 0
4 10 0
3 9 4 0
4 3 -1 0
4 -1 0
3 -1 0
4 0
3 9 0
4 10 3 0
4 10 0
3 9 0
4 10 0
4 10 3 0
3 0
3 9 4 0
4 10 0
3 9 0
3 9 4 0
4 0
3 0
4 0
3 0
3 0
4 0
13 12 1 0
12 13 1 0
12 1 0
13 1 0
13 -1 0
12 13 -1 0
13 12 -1 0
12 -1 0
13 0
12 0
13 1 0
13 -1 0
13 0
15 0
15 0
11 0
11 0
11 0
11 0
11 0
11 0
11 0
11 0
11 0
11 0
15 0
15 0
15 0
15 0
15 0
15 0
15 0
15 0
15 0
15 0
15 -1 0
15 0
15 1 0
15 -1 0
15 0
11 0
11 0
11 0
11 0
11 0
11 0
11 0
11 0
11 0
11 0
12 0
11 0
11 0
12 0
12 0
11 0
12 0
11 0
12 0
11 0
12 0
11 0
11 0
12 0
11 0
12 0
12 0
11 0
12 0
12 0
15 1 0
15 -1 0
15 0
1 11 0
-1 11 0
11 0
12 0
12 0
12 0
12 0
12 0
12 0
12 0
12 0
12 0
12 0
12 0
11 0
11 0
11 0
7 0
11 0
12 0
12 0
12 0
12 0
11 0
12 0
12 0
2 -8 12 0
12 0
7 0
11 0
11 0
7 0
12 0
11 0
12 0
12 0
11 0
12 0
12 0
11 0
12 0
12 0
12 0
11 0
7 0
12 0
2 -8 12 0
12 0
12 0
12 0
11 0
12 0
12 0
11 0
12 0
12 0
11 0
12 0
11 0
12 0
11 0
12 0
12 0
12 0
7 0
12 0
12 0
12 0
12 0
11 0
7 0
11 0
12 0
12 0
11 0
12 0
12 0
12 0
12 0
12 0
12 0
11 0
12 0
12 0
12 0
11 0
12 0
12 0
11 0
12 0
12 0
12 0
11 0
2 -8 0
7 0
12 0
12 0
12 0
12 0
12 0
12 0
11 0
12 0
12 0
12 0
11 0
12 0
7 0
12 0
11 0
12 0
12 0
12 0
12 0
12 0
11 0
12 0
12 0
11 0
11 0
12 0
7 0
11 0
11 0
11 0
12 0
12 0
7 0
12 0
12 0
12 0
7 0
12 0
12 0
12 0
11 0
11 0
12 0
12 0
11 0
11 0
12 0
2 -8 12 0
12 0
12 0
11 0
12 0
12 0
12 0
12 0
11 0
12 0
12 0
12 0
11 0
12 0
12 0
12 0
12 0
7 0
11 0
12 0
12 0
12 0
11 0
11 0
12 0
12 0
11 0
12 0
12 0
12 0
12 0
11 0
7 0
2 -8 0
11 0
12 0
12 0
12 0
12 0
12 0
12 0
11 0
11 0
12 0
12 0
12 0
12 0
12 0
12 0
12 0
7 0
11 0
11 0
12 0
12 0
11 0
12 0
12 0
12 0
12 0
12 0
12 0
7 0
6 0
3 0
3 9 0
6 0
4 0
4 10 3 0
3 9 4 0
4 10 0
3 0
6 0
4 0
6 4 0
3 9 6 0
3 9 0
4 10 6 0
4 3 6 9 0
2 0
3 9 4 0
6 3 0
2 8 0
4 10 3 0
6 0
4 10 3 6 0
4 10 0
2 8 0
4 10 0
4 10 6 0
2 0
3 9 4 0
4 10 3 0
4 3 6 9 0
4 10 3 6 0
3 9 0
6 4 0
6 0
3 9 6 0
6 3 0
4 10 0
6 4 0
4 10 3 6 0
6 0
4 3 6 9 0
2 0
3 9 0
3 9 6 0
6 3 0
2 8 0
4 10 6 0
3 9 4 0
4 10 3 0
3 9 6 0
3 9 0
6 0
2 8 0
4 10 6 0
4 10 3 6 0
4 3 6 9 0
3 9 4 0
6 3 0
4 10 3 0
4 10 0
6 4 0
2 0
12 0
12 0
-8 2 0
2 8 1 0
2 8 -1 0
2 0
12 0
4 0
4 10 0
2 0
3 9 0
11 0
4 3 6 9 0
3 6 0
3 6 9 0
2 8 0
4 10 3 6 0
3 0
4 10 3 0
4 6 0
11 0
6 0
4 3 9 0
6 0
4 10 6 0
2 11 8 0
-1 0
3 0
6 0
3 9 0
4 10 0
4 0
3 9 4 0
6 0
4 10 3 0
3 0
6 0
4 0
15 1 0
15 -1 0
15 0
15 0
15 0
15 0
15 0
11 0
11 0
11 0
11 0
11 0
11 0
11 0
11 0
11 0
7 1 0
7 -1 0
7 0
3 0
4 10 0
4 10 3 0
3 9 4 0
4 0
3 9 0
4 10 0
3 9 0
3 9 4 0
4 10 3 0
4 10 0
3 9 0
3 9 4 0
4 10 3 0
15 0
15 0
7 1 0
7 -1 0
7 0
4 10 0
3 0
4 0
6 0
4 10 3 0
3 9 4 0
3 9 0
6 0
3 0
6 0
4 0
15 0
15 0
15 0
15 0
15 0
15 0
15 0
15 0
15 0
15 0
15 0
15 0
15 0
15 0
15 0
15 0
15 0
15 0
15 0
15 0
15 0
15 0
15 0
15 0
15 0
15 0
15 0
15 0
15 0
15 0
15 0
15 0
15 0
15 0
15 0
7 0
12 0
12 0
7 0
7 0
12 0
12 0
7 0
7 0
7 0
12 0
12 0
7 0
12 0
7 0
12 0
12 0
12 0
7 0
7 0
11 0
6 0
4 0
3 0
6 4 0
11 0
6 3 0
4 3 6 9 0
11 0
6 0
4 10 0
3 9 0
6 0
4 10 6 0
4 10 3 0
4 10 3 6 0
3 0
4 0
3 9 6 0
3 9 4 0
6 0
4 10 3 0
3 9 4 0
3 9 6 0
4 0
6 3 0
3 0
4 10 0
3 9 0
11 0
4 10 6 0
11 0
6 4 0
4 3 6 9 0
4 10 3 6 0
6 0
6 4 0
4 10 6 0
6 0
6 0
3 9 0
4 3 6 9 0
4 10 3 0
3 0
11 0
3 9 4 0
4 10 3 6 0
3 9 6 0
4 0
4 10 0
6 3 0
11 0
6 3 0
3 9 0
6 0
11 0
4 10 6 0
4 3 6 9 0
4 10 3 6 0
4 10 3 0
4 0
11 0
6 4 0
3 0
4 10 0
6 0
3 9 6 0
3 9 4 0
13 1 0
13 -1 0
13 0
12 1 0
11 12 1 0
11 1 0
11 12 -1 0
12 -1 0
11 -1 0
12 0
11 0
1 11 0
-1 11 0
11 0
3 9 4 0
3 9 4 0
6 0
3 9 0
3 9 0
4 10 0
4 10 3 0
4 10 3 0
4 10 0
3 9 0
4 10 0
4 10 0
4 0
3 9 0
3 9 4 0
3 9 0
4 10 3 0
4 10 0
3 9 4 0
6 0
4 10 3 0
3 0
15 0
15 0
15 0
15 0
1 15 0
-1 15 0
15 0
7 0
13 0
3 9 0
7 0
13 0
13 0
3 0
4 3 9 0
4 10 3 0
13 0
4 10 0
4 0
3 0
13 0
13 0
13 0
4 10 0
3 9 0
4 3 9 0
4 10 3 0
13 0
7 0
7 0
4 0
13 0
13 0
4 0
3 0
7 0
4 0
3 9 0
4 10 0
13 0
7 0
13 0
7 0
4 3 9 0
3 0
13 0
13 0
4 10 3 0
7 0
13 0
3 0
4 0
13 0
12 1 0
12 -1 0
12 0
13 1 0
13 -1 0
13 0
15 0
15 0
15 0
15 0
15 0
15 0
15 0
15 0
15 0
15 0
15 0
15 0
15 0
15 0
15 0
15 0
15 0
15 0
15 0
15 0
15 0
15 0
7 0
7 0
15 0
15 0
1 7 0
-1 7 0
7 0
15 0
15 0
15 0
15 0
12 0
12 0
1 7 0
-1 7 0
7 0
7 1 0
7 -1 0
7 0
12 0
12 0
12 0
1 12 0
-1 12 0
12 0
1 15 0
-1 15 0
15 0
7 0
7 0
7 0
7 0
7 0
7 0
7 0
7 0
7 0
3 9 0
4 10 3 0
4 0
6 0
6 0
3 9 4 0
4 10 0
3 0
3 0
6 0
4 0
11 0
5 13 14 0
13 0
5 0
5 0
5 13 0
13 0
13 0
13 0
5 13 0
13 0
5 0
13 0
5 14 0
5 0
5 14 0
5 13 14 0
5 0
5 13 0
5 14 0
13 0
5 14 0
5 13 14 0
5 13 0
13 0
13 0
5 0
13 0
5 0
5 13 14 0
13 0
13 0
5 0
13 0
13 0
5 0
5 0
5 0
5 0
13 0
13 0
5 0
13 0
5 13 0
5 14 0
5 0
5 13 14 0
5 13 0
13 0
13 0
5 14 0
13 0
5 13 14 0
13 0
13 0
5 0
5 0
12 0
13 12 0
12 0
11 12 0
11 0
12 0
13 12 0
13 0
12 0
12 13 0
12 13 0
12 0
13 0
12 0
12 0
12 0
12 0
12 0
12 0
12 0
12 0
12 13 0
11 12 0
12 0
12 0
11 0
12 0
13 12 0
12 0
13 0
12 13 0
12 0
12 0
13 12 0
12 0
12 0
12 0
13 0
12 0
12 0
11 0
12 0
12 0
12 0
12 0
12 0
13 0
12 0
12 0
12 0
13 0
13 0
12 0
13 12 0
12 0
12 0
12 0
12 0
12 0
12 13 0
12 0
12 0
11 0
12 0
11 12 0
12 0
12 0
12 0
13 0
12 13 0
13 12 0
12 0
12 0
13 0
12 0
12 0
12 0
12 0
12 0
12 0
12 0
12 0
13 0
12 0
12 0
11 0
-9 1 0
-3 -9 0
-3 4 -10 0
4 10 1 -3 0
4 10 -1 -9 0
4 10 -1 -3 0
4 10 -9 0
-3 4 0
15 0
15 0
15 0
15 0
15 0
15 0
15 0
11 0
11 0
12 0
12 0
12 0
12 0
11 0
11 0
12 0
12 0
11 0
11 0
12 0
11 0
12 0
11 0
12 0
11 0
12 0
12 0
12 0
12 0
2 0
4 0
6 0
3 0
4 10 3 0
4 3 6 9 0
4 10 0
3 9 6 0
6 4 0
3 9 0
6 0
3 9 4 0
4 10 6 0
6 3 0
2 8 0
4 10 3 6 0
-1 0
4 0
2 0
6 0
3 0
-14 -16 0
-16 -5 0
1 12 0
-1 12 0
12 0
7 0
7 0
7 0
7 0
7 0
7 0
7 0
7 0
7 0
13 0
13 0
-2 -16 0
-8 -16 0
-5 -2 -16 0
7 0
7 0
13 0
13 0
7 0
7 0
13 0
13 0
13 0
7 0
7 0
7 0
13 0
13 0
13 0
7 0
4 -9 -10 0
3 -9 -10 0
-4 3 -9 0
-3 4 -10 0
3 9 1 0
4 10 3 1 0
4 10 1 0
4 3 1 9 0
3 9 -1 0
4 3 -1 9 0
4 10 3 -1 0
4 10 -1 0
3 0
4 0
1 11 0
-1 11 0
11 0
6 0
3 0
3 9 4 0
3 9 0
4 10 3 0
4 0
6 0
4 10 0
13 0
5 0
5 0
13 0
13 0
13 0
5 13 0
5 0
5 14 0
5 13 14 0
13 0
13 0
5 0
5 13 0
5 0
5 14 0
5 13 14 0
13 0
13 0
13 0
13 0
5 13 14 0
5 13 0
5 14 0
5 0
5 0
13 0
5 0
13 0
5 0
5 13 0
5 13 14 0
5 14 0
13 0
13 0
5 0
11 1 0
11 -1 0
11 0
11 0
11 0
1 11 0
-1 11 0
11 0
3 9 0
4 0
4 10 0
3 0
3 9 4 0
6 0
6 0
4 10 3 0
6 0
3 0
4 0
11 0
12 0
11 0
12 0
12 0
11 0
12 0
11 0
11 0
12 0
12 0
11 0
12 0
11 0
12 0
11 0
11 0
12 0
11 0
12 0
12 0
11 0
11 0
12 0
11 0
12 0
11 0
12 0
11 0
11 0
12 0
12 0
12 0
11 0
12 0
11 0
12 0
11 0
11 0
13 0
13 0
13 0
13 0
13 0
13 0
13 0
13 0
13 0
13 0
11 0
11 0
15 0
15 0
15 0
15 0
15 0
15 0
15 0
15 0
15 0
15 0
11 0
3 0
6 0
4 0
6 4 0
4 10 6 0
11 0
6 0
3 9 4 0
11 0
4 0
3 9 0
4 3 6 9 0
6 3 0
6 0
4 10 0
4 10 3 0
4 10 3 6 0
3 9 6 0
3 0
4 10 3 6 0
11 0
6 4 0
6 3 0
6 0
4 0
11 0
4 10 6 0
3 0
4 10 0
6 0
3 9 6 0
3 9 4 0
4 3 6 9 0
4 10 3 0
3 9 0
6 3 0
11 0
3 9 4 0
4 0
4 10 3 6 0
6 0
6 0
3 9 0
4 10 6 0
6 4 0
4 3 6 9 0
11 0
4 10 0
4 10 3 0
3 9 6 0
3 0
6 0
3 9 6 0
3 9 4 0
11 0
4 10 6 0
4 10 3 6 0
6 4 0
4 10 0
6 0
3 0
3 9 0
11 0
6 3 0
4 10 3 0
4 0
4 3 6 9 0
15 0
15 0
15 0
15 0
5 0
13 0
13 0
5 0
13 0
5 0
5 13 14 0
13 0
5 13 0
5 14 0
5 13 14 0
13 0
13 0
5 14 0
13 0
5 0
5 0
5 13 0
13 0
5 0
5 0
5 13 0
5 13 14 0
13 0
13 0
5 14 0
5 14 0
13 0
13 0
13 0
5 13 0
5 13 14 0
5 0
5 0
5 0
13 0
5 14 1 0
5 -1 0
5 0
12 0
13 0
12 0
12 0
12 0
13 0
12 0
12 0
12 13 0
12 0
12 0
12 13 0
12 0
12 0
13 12 0
13 12 0
13 12 0
12 0
12 0
12 0
12 0
12 13 0
12 0
13 0
12 0
12 0
13 12 0
12 13 0
12 0
12 0
13 0
12 0
12 0
13 0
12 0
12 0
12 0
12 0
12 0
12 0
12 0
12 0
13 0
12 0
12 13 0
12 0
12 0
12 0
12 13 0
13 12 0
12 0
13 12 0
12 0
12 0
12 0
12 0
12 0
12 0
12 0
13 0
13 0
12 0
13 0
12 0
12 0
12 0
12 0
12 0
12 0
12 0
12 0
12 0
13 0
15 1 0
15 -1 0
15 0
15 0
15 0
15 0
15 0
7 0
7 0
7 0
7 0
7 0
7 0
7 0
7 0
7 0
7 0
7 0
7 0
7 0
7 0
7 0
7 0
5 -14 -11 0
5 14 0
11 0
5 0
11 0
5 14 0
5 0
11 0
11 0
5 14 0
5 0
11 0
11 0
11 0
11 0
5 14 0
5 0
5 0
11 0
1 11 0
-1 11 0
11 0
7 1 0
7 -1 0
7 0
12 0
11 0
12 0
11 0
11 0
12 0
11 0
12 0
12 0
11 0
11 0
12 0
11 0
11 0
12 0
12 0
11 0
12 0
1 11 0
-1 11 0
11 0
5 0
13 0
13 0
5 0
5 14 0
13 0
5 0
5 13 0
13 0
13 0
5 0
5 13 14 0
5 0
13 0
5 14 0
5 0
5 13 0
13 0
5 0
13 0
5 13 14 0
13 0
13 0
5 0
5 0
13 0
5 0
5 14 0
13 0
13 0
5 13 0
5 13 14 0
5 0
5 13 14 0
5 14 0
13 0
5 13 0
13 0
5 0
5 0
13 0
13 0
5 0
13 0
3 0
4 10 3 0
3 9 4 0
4 0
4 10 0
3 9 0
3 0
4 10 3 0
3 9 4 0
4 0
4 10 0
3 9 0
1 15 0
-1 15 0
15 0
1 15 0
-1 15 0
15 0
1 11 0
-1 11 0
11 0
1 11 0
-1 11 0
11 0
5 0
5 0
5 14 0
5 14 0
5 0
5 14 0
5 0
5 0
5 14 0
1 12 0
-1 12 0
12 0
7 0
7 0
7 0
7 0
13 0
13 0
13 0
13 0
13 0
13 0
13 0
13 0
1 11 0
-1 11 0
11 0
11 0
11 0
11 12 0
12 0
12 0
11 0
11 0
11 12 0
12 0
12 0
15 0
15 0
7 0
7 0
7 -1 0
3 0
4 0
6 0
4 10 0
3 9 0
3 9 4 0
6 0
4 10 3 0
3 0
6 0
4 0
15 1 0
15 -1 0
15 0
1 7 0
-1 7 0
7 0
1 15 0
-1 15 0
15 0
11 0
11 0
15 0
3 9 0
3 0
3 0
3 9 0
3 9 0
15 0
3 9 0
3 0
3 0
3 0
3 9 0
15 0
3 0
15 0
3 0
3 9 0
3 9 0
3 0
3 9 0
15 0
3 0
3 0
3 0
3 0
3 0
3 0
3 0
3 9 0
15 0
3 0
3 9 0
15 0
3 9 0
3 9 0
3 0
3 0
3 0
15 0
3 0
7 1 0
7 -1 0
7 0
7 0
7 0
7 0
7 0
7 0
7 0
7 0
7 0
7 0
11 0
11 0
1 7 0
-1 7 0
7 0
15 0
15 0
15 0
15 0
15 0
15 0
15 0
15 0
15 0
15 0
1 7 0
-1 7 0
7 0
12 0
12 0
12 0
12 0
12 0
12 0
12 0
12 0
12 0
12 0
12 0
12 0
12 0
1 7 0
-1 7 0
7 0
7 1 0
12 1 0
12 7 1 0
12 7 -1 0
12 -1 0
7 -1 0
7 0
12 0
7 0
12 0
12 0
7 0
12 0
7 0
7 0
7 0
12 0
12 0
12 0
12 0
7 0
7 0
12 0
7 0
12 0
7 0
12 0
7 0
3 0
6 0
4 0
4 0
4 10 0
4 10 6 0
3 9 6 0
6 0
4 3 6 9 0
6 0
4 10 3 6 0
4 10 3 0
6 4 0
3 9 4 0
6 3 0
3 0
3 9 0
3 9 0
4 10 6 0
4 3 6 9 0
4 10 0
4 10 3 0
6 0
3 9 4 0
6 3 0
3 0
4 10 3 6 0
6 0
6 4 0
3 9 6 0
4 0
3 9 6 0
4 10 3 0
6 4 0
6 0
6 0
6 3 0
4 10 6 0
4 10 3 6 0
3 0
3 9 0
4 3 6 9 0
4 0
4 10 0
3 9 4 0
6 4 0
6 3 0
4 10 3 6 0
4 3 6 9 0
4 10 3 0
6 0
3 9 6 0
4 10 0
3 9 4 0
4 10 6 0
3 0
4 0
6 0
3 9 0
4 -9 -10 0
-4 3 -9 0
3 -9 -10 0
-3 4 -10 0
3 0
3 9 4 0
3 9 0
4 10 0
4 0
4 10 3 0
3 0
4 0
3 9 0
3 9 4 0
4 10 0
4 10 3 0
3 0
3 9 4 0
4 10 0
4 10 3 0
3 9 0
4 0
4 10 3 0
3 0
4 0
3 9 0
4 10 0
3 9 4 0
3 0
4 0
4 10 0
4 10 3 0
3 9 4 0
4 10 3 0
3 9 0
3 9 0
4 0
4 10 0
3 0
3 9 4 0
4 10 0
4 10 3 0
3 9 4 0
4 10 3 0
3 9 0
3 9 0
4 0
4 10 0
3 0
3 9 4 0
13 0
12 0
12 0
12 0
12 0
12 13 0
12 0
12 0
12 0
13 12 0
13 12 0
12 0
12 0
12 0
11 12 0
13 0
12 0
12 13 0
11 0
12 0
12 0
12 0
12 13 0
12 0
12 13 0
12 0
12 0
12 0
13 12 0
13 0
11 12 0
12 0
12 0
13 0
11 0
12 0
13 12 0
12 0
12 0
12 0
12 0
11 0
12 0
12 0
13 0
13 0
12 0
12 0
12 0
12 0
12 0
13 12 0
13 0
12 13 0
12 0
12 0
12 0
12 0
12 0
12 0
12 0
12 0
12 0
12 13 0
12 0
13 0
12 0
12 0
11 12 0
11 0
12 0
13 12 0
12 0
12 0
12 0
13 0
13 0
12 0
12 0
12 0
12 0
12 0
12 0
12 0
11 0
12 0
11 0
11 0
-8 -16 -5 0
-14 -8 -16 0
-2 -11 -16 -5 0
-2 -16 -5 0
-14 -2 -16 0
-2 -16 -5 0
-8 -16 -5 0
-14 -8 -16 0
-2 -16 -5 0
-14 -2 -16 0
-14 -16 0
-16 -5 0
-13 -2 -16 -5 0
11 0
11 0
11 0
11 0
11 0
11 0
11 0
11 0
11 0
11 0
11 0
11 0
11 0
11 0
11 0
11 0
11 0
12 1 0
11 12 1 0
11 1 0
11 12 -1 0
11 -1 0
12 -1 0
11 0
12 0
12 0
11 0
12 0
11 0
11 0
5 0
5 14 0
11 0
11 0
5 0
11 0
11 0
11 0
5 14 0
5 0
11 0
5 0
11 0
11 0
11 0
5 14 0
11 0
5 14 0
11 0
11 0
5 0
5 0
11 0
3 0
4 0
4 10 0
3 9 4 0
4 0
3 9 0
4 10 3 0
3 0
4 10 0
3 9 4 0
3 9 0
4 10 3 0
4 0
3 0
4 10 0
3 9 4 0
3 0
4 10 3 0
3 9 0
4 0
4 0
4 10 0
4 10 3 0
3 0
3 9 0
3 9 4 0
3 0
4 0
11 0
11 0
15 0
15 0
15 0
15 0
1 15 0
-1 15 0
15 0
13 0
13 0
13 0
13 0
13 0
13 0
13 0
13 0
13 0
13 0
13 0
13 0
3 9 4 0
4 10 3 0
3 9 0
3 0
4 10 0
6 0
6 0
4 0
6 0
4 0
3 0
-1 0
7 0
7 0
15 1 0
-1 15 0
15 0
11 0
11 0
1 15 0
-1 15 0
15 0
12 1 0
11 12 1 0
11 1 0
11 -1 0
12 -1 0
11 12 -1 0
12 0
11 0
15 0
15 0
15 0
15 0
15 0
15 0
15 0
15 0
15 0
15 0
15 0
15 0
15 0
15 0
15 0
15 0
15 0
1 15 0
-1 15 0
15 0
15 1 0
15 -1 0
15 0
7 1 0
7 -1 0
7 0
4 -9 -10 0
3 -9 -10 0
-3 4 -10 0
-4 3 -9 0
4 3 1 9 0
4 10 3 1 0
3 9 1 0
4 10 1 0
3 9 -1 0
4 10 3 -1 0
4 10 -1 0
4 3 -1 9 0
3 0
4 0
11 0
11 0
15 0
15 0
15 0
15 0
15 0
15 0
15 0
15 0
15 0
15 0
15 0
15 0
15 0
15 0
15 0
15 0
15 0
15 0
15 0
1 7 0
-1 7 0
7 0
1 15 0
-1 15 0
15 0
5 0
13 0
13 0
13 0
5 0
5 13 0
5 14 0
5 0
13 0
5 13 14 0
5 0
13 0
5 14 0
5 0
5 13 0
5 13 14 0
13 0
13 0
13 0
13 0
5 0
5 13 14 0
5 13 0
5 14 0
13 0
5 0
5 0
5 14 0
5 13 14 0
13 0
5 0
5 13 0
13 0
13 0
5 0
13 0
12 1 0
12 -1 0
12 0
-4 3 -9 0
3 -9 -10 0
-3 4 -10 0
4 -9 -10 0
3 9 1 0
4 3 1 9 0
4 10 1 0
4 10 3 1 0
4 10 -1 0
3 9 -1 0
4 10 3 -1 0
4 3 -1 9 0
3 0
4 0
11 12 0
12 0
12 0
12 0
12 13 0
11 0
13 12 0
12 0
12 0
12 0
12 13 0
12 0
12 0
12 0
12 0
13 12 0
13 0
12 0
13 0
12 0
11 12 0
13 0
12 0
12 0
12 0
12 0
12 0
12 0
12 13 0
12 0
13 12 0
13 0
13 12 0
11 0
12 0
12 13 0
12 0
12 0
12 0
13 0
12 0
11 0
12 0
12 0
12 0
12 0
12 0
12 0
12 0
13 0
12 0
12 0
12 13 0
12 0
13 0
13 12 0
13 12 0
12 0
12 0
13 0
12 0
12 0
12 0
12 13 0
12 0
12 0
11 12 0
12 0
12 0
11 0
12 0
12 0
12 0
12 0
12 0
12 0
13 0
11 0
12 0
12 0
12 0
13 0
12 0
12 0
12 0
12 0
2 8 1 0
2 -1 0
4 10 0
3 9 4 0
3 9 0
4 10 3 0
4 10 0
3 9 4 0
3 9 0
4 10 3 0
7 0
7 0
12 0
12 0
12 0
12 7 0
12 0
11 12 1 0
12 1 0
11 1 0
12 -1 0
11 12 -1 0
11 -1 0
11 0
12 0
12 0
12 0
11 0
11 0
11 0
11 0
11 0
11 0
11 0
11 0
12 0
7 0
12 0
7 0
12 0
7 0
7 0
12 0
7 0
12 0
12 0
7 0
12 0
7 0
7 0
12 0
12 0
7 0
7 0
12 0
7 0
7 0
7 0
7 0
7 0
7 0
4 0
3 9 4 0
4 10 3 0
4 10 0
3 9 0
6 0
6 0
3 0
4 0
3 0
6 0
1 7 0
-1 7 0
7 0
11 0
12 0
12 0
12 0
11 0
11 0
12 0
11 0
12 0
11 0
11 0
12 0
11 0
12 0
11 0
12 0
12 0
11 0
12 0
11 0
7 1 0
7 -1 0
7 0
1 12 0
-1 12 0
12 0
11 1 0
11 -1 0
11 0
1 7 0
1 12 0
-1 7 0
-1 12 0
7 0
12 0
12 0
12 0
12 0
15 0
15 0
12 0
11 0
5 0
13 0
5 0
5 0
13 0
5 13 0
5 14 0
5 13 14 0
13 0
13 0
5 0
5 13 0
5 0
13 0
13 0
13 0
5 13 14 0
5 14 0
13 0
13 0
5 0
5 14 0
5 0
13 0
5 13 14 0
5 13 0
5 14 0
5 0
5 13 0
13 0
13 0
5 0
5 13 14 0
13 0
13 0
5 0
4 10 0
4 3 9 0
4 0
3 9 0
3 0
3 9 0
3 0
4 10 0
4 10 3 0
4 0
4 3 9 0
4 10 3 0
3 9 0
3 0
3 0
4 10 3 0
3 9 4 0
4 0
3 0
4 3 9 0
4 10 0
4 0
4 10 0
4 10 3 0
4 10 3 0
4 10 0
3 9 4 0
4 10 0
4 3 9 0
4 10 3 0
4 10 3 0
4 0
4 10 3 0
4 0
4 3 6 9 0
4 10 3 0
4 10 0
4 10 0
3 9 4 0
4 10 0
4 0
4 10 0
4 0
4 10 0
3 0
3 9 0
4 10 0
3 9 0
4 3 9 0
3 9 0
3 0
3 9 0
4 0
3 9 4 0
3 9 4 0
3 9 4 0
4 10 3 6 0
3 0
3 0
4 0
4 10 0
3 9 0
4 10 0
4 10 0
3 9 0
6 4 0
4 10 3 0
3 0
3 9 0
4 10 3 0
3 9 0
3 9 4 0
4 3 9 0
4 10 3 0
3 9 4 0
3 9 4 0
3 9 0
4 10 3 0
3 9 0
3 9 0
4 10 0
4 10 3 0
4 0
4 10 6 0
3 9 0
3 9 0
4 10 3 0
3 9 0
4 10 0
4 10 0
3 9 0
4 3 9 0
4 10 0
4 10 3 0
3 9 0
3 9 4 0
3 0
4 10 0
4 10 3 0
3 9 4 0
4 10 3 0
4 10 0
3 9 0
4 3 9 0
4 0
4 10 3 0
4 3 9 0
4 10 0
3 9 0
4 10 3 0
3 9 4 0
4 10 3 0
4 10 0
4 0
3 9 0
4 10 0
4 10 3 0
4 10 0
3 9 4 0
4 10 3 0
3 9 0
3 9 6 0
3 9 0
4 10 3 0
6 3 0
4 3 9 0
3 9 0
3 9 0
3 9 0
3 9 0
3 9 0
4 10 3 0
3 9 4 0
4 10 0
4 3 9 0
4 10 0
4 10 3 0
3 9 0
4 10 3 0
3 9 4 0
3 9 0
3 0
4 10 3 0
4 10 0
4 3 9 0
4 3 9 0
4 10 0
6 0
4 10 3 0
4 10 3 0
3 9 4 0
4 10 3 0
4 10 0
4 10 0
3 9 4 0
3 9 0
4 10 0
4 10 3 0
4 10 3 0
3 0
4 10 0
3 9 4 0
3 9 4 0
3 9 4 0
3 9 0
3 9 0
4 3 9 0
4 10 0
3 9 0
4 0
3 9 0
4 0
4 0
3 9 0
4 10 0
4 10 0
4 10 3 0
3 9 0
4 3 9 0
4 3 9 0
4 3 9 0
3 9 0
3 0
4 0
3 9 0
4 10 0
3 9 0
3 0
4 10 0
4 10 0
4 0
4 0
3 9 4 0
4 0
4 10 3 0
6 0
4 10 0
4 10 3 0
3 0
3 0
3 9 0
3 9 0
4 10 3 0
4 10 3 0
3 9 4 0
4 10 3 0
4 10 0
4 10 0
4 3 9 0
3 9 0
4 10 3 0
4 10 0
4 3 9 0
3 9 0
3 9 4 0
4 10 3 0
4 10 0
3 9 4 0
3 9 4 0
3 9 4 0
3 0
3 9 4 0
4 10 0
4 3 9 0
4 10 0
3 0
4 0
3 9 0
4 10 3 0
4 10 0
3 9 0
4 10 0
3 9 4 0
4 10 3 0
3 9 4 0
4 10 0
4 10 0
3 9 0
6 3 0
3 9 0
3 9 0
4 10 0
4 10 3 0
4 0
3 9 0
4 10 3 0
4 3 9 0
3 0
4 10 3 0
4 3 9 0
4 0
4 3 9 0
3 9 0
4 10 3 0
3 9 0
3 9 0
4 3 9 0
4 10 0
4 10 3 0
3 9 0
4 10 3 0
3 9 4 0
3 0
4 10 3 0
3 9 0
3 0
3 9 0
4 10 0
4 10 0
4 3 6 9 0
3 9 4 0
4 10 0
4 10 3 0
4 0
3 9 4 0
3 9 4 0
4 10 0
4 10 3 0
4 3 9 0
3 9 0
3 9 0
3 9 4 0
4 0
4 10 3 0
3 9 4 0
4 10 0
4 10 0
3 9 4 0
3 9 4 0
3 9 6 0
3 0
3 9 0
4 10 0
4 10 3 0
3 9 4 0
4 10 3 0
4 10 3 0
4 10 3 0
4 10 0
4 10 3 0
4 10 3 0
3 0
3 9 0
4 10 0
3 9 0
3 9 0
4 10 0
4 10 3 0
4 0
4 10 0
4 10 3 0
4 10 0
4 10 3 0
3 9 0
4 10 0
4 10 3 6 0
4 10 3 0
4 10 3 0
4 3 9 0
4 10 3 0
3 0
3 9 0
4 10 3 0
3 0
3 9 0
3 9 4 0
3 9 4 0
6 4 0
4 10 6 0
4 10 0
3 0
3 0
3 0
4 0
3 0
3 0
3 0
3 0
4 0
4 0
4 0
3 0
4 0
4 0
3 0
3 0
4 0
3 0
3 0
3 0
4 0
3 0
3 0
4 0
4 0
4 0
3 0
4 0
4 0
4 0
4 0
3 0
3 0
3 0
3 0
3 0
4 0
4 0
4 0
4 0
3 0
3 0
3 0
4 0
4 0
6 0
3 0
4 0
4 0
4 0
3 0
4 0
4 0
4 0
3 0
4 0
4 0
4 0
4 0
3 0
4 0
3 0
3 0
3 0
3 0
4 0
3 0
4 10 3 0
4 10 3 0
3 9 0
4 0
3 9 0
4 10 0
4 10 0
3 9 4 0
4 10 3 0
3 9 4 0
3 0
4 10 3 0
3 9 6 0
4 10 0
4 0
4 10 3 0
3 9 0
4 3 9 0
4 10 0
3 9 4 0
3 9 4 0
3 9 0
3 0
3 0
3 0
4 3 9 0
4 10 0
4 10 0
3 9 0
4 10 0
3 0
4 3 9 0
4 10 0
3 9 4 0
4 10 3 0
3 9 0
4 10 0
4 10 3 0
3 9 0
4 10 3 0
3 9 0
4 3 9 0
3 0
4 10 0
4 10 3 0
3 9 0
3 9 0
4 10 0
4 10 3 0
4 3 9 0
3 9 0
4 10 3 0
3 9 4 0
3 9 4 0
3 9 0
3 9 4 0
3 9 4 0
4 10 0
4 0
3 9 4 0
4 3 9 0
3 0
3 0
4 10 3 0
4 10 0
4 10 3 0
4 3 9 0
4 10 0
4 10 0
3 9 4 0
4 10 3 0
3 9 0
3 9 0
4 10 3 0
4 10 0
4 10 0
4 10 0
4 10 0
4 10 3 0
4 10 3 0
3 9 0
6 3 0
4 10 3 0
4 10 0
3 9 0
4 0
4 0
3 9 0
4 10 3 0
4 3 9 0
3 9 0
4 3 9 0
4 10 3 0
3 9 4 0
4 3 9 0
4 10 0
3 9 0
3 9 0
3 9 0
3 0
3 0
3 9 4 0
3 9 4 0
3 9 0
6 0
4 10 3 0
3 9 0
4 10 3 0
4 10 3 0
4 10 3 0
4 10 0
4 0
4 0
3 9 0
3 9 0
3 9 4 0
4 0
4 3 9 0
3 9 4 0
4 10 0
4 10 3 0
4 10 0
3 9 4 0
4 10 3 0
4 10 0
4 10 0
4 0
3 9 0
4 10 0
4 10 3 0
3 9 0
4 10 3 6 0
4 10 3 0
3 0
6 4 0
4 10 0
4 10 0
4 10 3 0
4 10 3 0
3 9 0
4 3 6 9 0
4 0
4 3 9 0
4 0
3 0
4 10 0
4 10 3 0
3 0
3 9 0
4 0
3 9 0
3 9 4 0
3 0
4 10 3 0
4 10 6 0
3 9 4 0
3 9 4 0
4 10 3 0
4 0
4 10 0
3 9 0
4 10 0
4 3 9 0
3 9 0
3 9 0
3 9 0
4 0
4 10 0
4 10 0
3 0
3 0
4 0
3 0
4 0
4 0
3 0
4 0
4 0
4 0
4 0
3 0
3 0
4 0
4 0
4 0
4 0
3 0
4 0
4 0
3 0
4 0
4 0
4 0
3 0
3 0
4 0
4 0
3 0
4 0
3 0
4 0
3 0
3 0
4 0
3 0
4 0
4 0
3 0
3 0
3 0
3 0
3 0
3 0
3 0
3 0
3 0
4 0
4 0
3 0
4 0
3 0
4 0
3 0
3 0
3 0
3 0
3 0
3 0
3 0
4 0
3 0
4 0
4 0
6 0
4 0
4 0
4 0
4 0
12 1 0
12 -1 0
12 0
4 10 0
3 9 0
3 0
4 10 3 0
3 9 4 0
4 0
4 10 0
4 0
4 10 3 0
3 9 0
3 9 4 0
3 0
4 10 0
4 0
4 10 3 0
3 9 0
3 9 4 0
3 0
6 0
2 0
4 0
3 0
4 10 3 0
3 9 6 0
3 9 0
6 4 0
4 10 0
3 9 4 0
4 10 6 0
6 0
6 3 0
2 8 0
4 10 3 6 0
4 3 6 9 0
-1 0
2 0
4 0
6 0
3 0
11 0
11 0
11 0
12 0
12 0
13 0
13 0
11 0
5 0
13 0
5 14 0
5 0
5 13 0
5 0
5 13 14 0
13 0
13 0
13 0
13 0
5 0
5 13 0
5 13 14 0
5 0
13 0
5 14 0
13 0
5 13 14 0
5 0
5 14 0
13 0
5 13 0
5 0
13 0
13 0
13 0
5 14 0
13 0
5 13 14 0
13 0
5 0
5 0
5 13 0
5 0
13 0
7 1 0
7 -1 0
7 0
4 10 3 0
3 9 0
6 0
3 9 4 0
4 0
4 10 0
6 0
3 0
4 0
3 0
6 0
15 0
15 0
5 0
13 0
13 0
5 13 0
5 0
13 0
5 13 14 0
5 0
5 14 0
13 0
5 14 0
13 0
13 0
5 0
5 0
13 0
5 13 14 0
5 13 0
5 0
5 0
13 0
5 13 14 0
13 0
13 0
5 14 0
5 13 0
5 13 14 0
5 14 0
13 0
5 13 0
13 0
5 0
13 0
5 0
13 0
5 0
2 0
3 0
6 0
4 0
6 4 0
6 0
4 10 6 0
4 10 3 6 0
4 10 0
3 9 0
3 9 6 0
2 8 0
3 9 4 0
6 3 0
4 3 6 9 0
4 10 3 0
-1 0
3 0
4 0
6 0
2 0
13 1 0
13 -1 0
13 0
7 0
7 0
7 0
7 0
15 1 0
15 -1 0
15 0
13 0
13 0
13 0
13 0
13 0
13 0
13 0
13 0
13 0
13 0
15 0
15 0
1 15 0
-1 15 0
15 0
-8 2 0
2 8 1 0
2 8 -1 0
2 0
7 0
7 0
7 0
7 0
7 0
7 0
7 0
7 0
7 0
7 0
7 0
7 0
7 0
7 0
7 0
7 0
7 0
7 0
7 0
7 0
7 0
7 0
7 0
7 0
7 0
7 0
7 0
7 0
7 0
7 0
7 0
7 0
7 0
7 0
7 0
7 0
7 0
7 0
7 0
7 0
7 0
7 0
7 0
7 0
7 0
7 0
7 0
7 0
1 11 0
-1 11 0
11 0
7 1 0
7 -1 0
7 0
15 0
13 0
13 0
13 0
15 0
15 0
15 0
13 0
13 0
15 0
15 0
13 0
13 0
15 0
13 0
15 0
13 0
15 0
15 0
13 0
13 0
13 0
13 0
13 0
12 0
12 0
15 1 0
15 -1 0
15 0
11 0
3 9 4 0
4 10 3 0
6 0
3 0
6 0
4 0
4 10 0
3 9 0
4 0
6 0
3 0
2 8 1 0
2 -1 0
2 0
7 0
7 0
7 0
7 0
7 0
7 0
7 0
7 0
7 0
-3 4 -10 0
-4 3 -9 0
4 -9 -10 0
3 -9 -10 0
4 0
3 9 4 0
4 10 3 0
3 9 0
4 10 0
3 0
3 9 0
4 10 3 0
3 9 4 0
4 10 0
3 0
4 0
4 10 3 0
3 9 4 0
3 9 0
3 0
4 10 0
4 0
3 9 0
3 0
4 0
4 10 0
4 10 3 0
3 9 4 0
3 0
4 0
15 0
15 0
1 15 0
-1 15 0
15 0
4 10 0
4 10 3 0
3 9 4 0
3 0
4 0
3 9 0
4 10 0
4 10 3 0
3 9 4 0
3 9 0
4 10 0
4 10 3 0
3 9 4 0
3 9 0
3 -9 -10 0
-3 4 -10 0
4 -9 -10 0
-4 3 -9 0
4 10 1 0
3 9 1 0
4 3 1 9 0
4 10 3 1 0
4 10 -1 0
4 3 -1 9 0
3 9 -1 0
4 10 3 -1 0
3 0
4 0
11 0
3 0
6 0
4 0
6 3 0
3 9 6 0
4 10 3 0
3 9 0
4 10 0
4 10 3 6 0
6 0
4 0
4 10 6 0
3 9 4 0
6 0
6 4 0
11 0
3 0
11 0
4 3 6 9 0
11 0
4 0
3 9 6 0
6 0
11 0
4 10 3 6 0
4 10 3 0
3 9 4 0
4 10 0
6 0
6 3 0
6 4 0
4 10 6 0
3 9 0
3 0
4 3 6 9 0
3 0
4 10 3 6 0
6 4 0
6 0
11 0
4 10 3 0
4 0
3 9 6 0
6 0
6 3 0
3 9 4 0
4 10 0
3 9 0
4 3 6 9 0
4 10 6 0
11 0
4 10 6 0
4 10 0
11 0
3 9 0
3 9 4 0
4 0
4 10 3 6 0
4 3 6 9 0
6 3 0
3 9 6 0
6 0
11 0
6 4 0
6 0
4 10 3 0
3 0
13 0
7 0
7 0
13 0
13 0
7 0
13 0
7 0
7 0
13 0
7 0
13 0
13 0
7 0
13 0
7 0
4 10 0
4 10 3 0
3 0
3 9 4 0
4 0
3 9 0
6 0
6 0
6 0
3 0
4 0
1 11 0
-1 11 0
11 0
13 0
13 0
15 0
15 7 0
7 0
15 0
7 0
7 0
15 7 0
15 0
7 0
15 0
7 0
15 7 0
15 0
15 0
15 7 0
15 0
7 0
7 0
15 0
7 0
15 0
7 0
7 0
15 0
7 0
15 7 0
15 0
15 0
7 0
7 0
15 0
15 0
15 7 0
7 0
7 0
7 0
15 0
15 0
11 0
11 0
1 15 0
-1 15 0
15 0
15 1 0
15 -1 0
15 0
13 0
5 0
5 13 0
13 0
5 0
13 0
5 0
5 13 14 0
5 14 0
13 0
13 0
5 13 0
5 0
13 0
13 0
5 14 0
5 0
5 13 14 0
5 14 0
13 0
5 13 14 0
5 13 0
13 0
5 0
13 0
5 0
13 0
5 0
5 0
5 13 0
5 14 0
13 0
13 0
5 13 14 0
5 0
13 0
15 0
13 1 0
13 -1 0
13 0
12 0
12 0
1 11 0
-1 11 0
11 0
1 7 0
-1 7 0
7 0
13 0
5 0
13 0
5 0
5 13 14 0
5 14 0
13 0
5 0
13 0
5 13 0
5 13 14 0
5 0
5 0
13 0
13 0
13 0
5 14 0
5 13 0
13 0
5 13 14 0
5 0
5 14 0
13 0
13 0
5 13 0
5 0
5 0
5 13 0
5 0
5 13 14 0
5 14 0
13 0
13 0
13 0
13 0
5 0
1 15 0
-1 15 0
15 0
4 0
3 0
4 10 3 0
3 0
3 9 0
4 0
3 9 4 0
4 10 0
3 9 0
4 10 3 0
3 0
3 9 4 0
4 0
4 10 0
3 9 0
4 0
3 0
4 10 3 0
4 10 0
3 9 4 0
3 0
3 9 0
4 10 0
4 10 3 0
4 0
3 9 4 0
3 0
4 0
13 1 0
13 -1 0
13 0
15 0
15 0
15 0
15 0
15 0
15 0
15 0
15 0
15 0
15 0
15 0
15 0
15 0
15 0
15 0
15 0
15 0
15 0
15 0
15 0
15 0
15 0
15 0
15 0
7 0
7 0
7 0
7 0
7 0
7 0
7 0
7 0
7 0
13 0
7 0
13 0
7 0
7 0
13 0
7 0
7 0
7 0
13 0
13 0
7 0
7 0
13 0
7 0
7 0
7 0
13 0
7 0
13 0
13 0
13 0
15 0
7 0
7 0
4 -9 -10 0
3 -9 -10 0
-4 3 -9 0
-3 4 -10 0
4 10 1 0
4 10 3 1 0
3 9 1 0
4 3 1 9 0
4 10 3 -1 0
4 10 -1 0
4 3 -1 9 0
3 9 -1 0
3 0
4 0
13 0
13 0
13 0
13 0
13 0
13 0
13 0
13 0
7 0
7 0
7 0
7 0
7 0
7 0
7 0
7 0
7 0
7 0
7 0
7 0
7 0
7 0
7 0
7 0
7 0
7 0
7 0
7 0
7 0
7 0
12 0
12 0
7 0
7 0
7 0
7 0
7 0
7 0
7 0
7 0
7 0
7 0
3 9 0
3 0
4 10 0
6 0
4 10 3 0
4 0
3 9 4 0
6 0
6 0
3 0
4 0
4 0
4 10 0
3 9 4 0
6 0
4 10 3 0
3 0
6 0
3 9 0
3 0
4 0
6 0
1 11 0
-1 11 0
11 0
3 9 0
4 10 3 6 0
11 0
6 3 0
4 3 6 9 0
4 0
6 0
4 10 6 0
6 4 0
3 0
3 9 6 0
3 9 4 0
11 0
6 0
4 10 3 0
4 10 0
4 10 0
4 0
3 0
3 9 0
4 10 3 0
3 9 4 0
6 0
6 0
6 0
4 0
3 0
7 1 0
7 -1 0
7 0
15 0
15 0
15 0
15 0
15 0
15 0
15 0
15 0
15 0
2 -12 -11 -8 0
11 1 0
2 8 12 1 0
12 2 1 0
11 12 1 0
11 2 1 0
2 11 8 1 0
2 8 1 0
12 1 0
2 8 12 -1 0
12 2 -1 0
11 -1 0
2 11 8 -1 0
2 8 -1 0
12 -1 0
11 12 -1 0
11 2 -1 0
2 0
12 0
11 0
7 0
7 0
7 0
7 0
7 0
7 0
7 0
7 0
7 0
15 0
15 0
15 0
15 0
7 0
15 7 0
7 0
15 0
15 0
15 0
15 7 0
7 0
15 7 0
7 0
15 0
7 0
7 0
15 0
15 0
7 0
15 0
7 0
15 7 0
15 0
15 7 0
15 0
7 0
15 0
7 0
15 0
7 0
15 7 0
7 0
15 0
15 0
15 0
7 0
15 0
7 0
15 0
15 0
7 0
7 0
7 0
15 0
15 7 0
15 7 0
7 0
15 0
15 0
15 7 0
15 0
7 0
15 0
15 0
7 0
15 0
15 0
7 0
7 0
7 0
7 0
15 0
15 0
15 0
15 0
4 10 0
3 9 4 0
4 0
4 10 0
3 0
4 10 3 0
4 10 3 0
3 9 0
4 10 0
4 10 3 0
3 9 4 0
4 10 0
4 10 0
4 10 3 0
4 10 0
3 0
3 9 4 0
4 10 3 0
4 10 0
13 0
4 3 9 0
4 0
4 10 0
3 9 4 0
4 10 0
13 0
4 10 0
4 10 0
3 9 4 0
4 10 0
4 10 0
4 10 3 0
4 10 3 0
3 9 4 0
4 10 3 0
13 0
3 9 4 0
4 10 0
4 3 9 0
4 10 3 0
4 10 0
4 10 3 0
3 9 4 0
3 9 0
4 10 3 0
3 0
4 3 9 0
4 10 3 0
4 0
4 3 9 0
13 0
4 10 0
3 0
3 9 0
4 10 3 0
4 10 3 0
4 10 0
4 10 0
3 9 0
3 9 4 0
4 10 3 0
4 0
3 0
3 0
3 9 0
4 10 3 0
3 9 4 0
3 0
3 9 4 0
4 10 3 0
4 10 0
4 3 9 0
13 0
3 0
4 10 0
4 10 3 0
4 10 0
3 9 0
13 0
3 9 0
3 0
3 9 0
4 0
4 10 3 0
4 10 3 0
3 9 4 0
4 10 0
4 10 0
3 9 0
4 10 3 0
4 0
4 10 3 0
3 9 4 0
3 9 0
3 9 0
4 10 3 0
4 10 0
4 0
3 9 4 0
4 10 3 0
4 10 0
4 0
3 9 0
4 10 0
4 10 0
3 0
3 9 0
4 10 0
4 10 0
3 9 0
4 10 3 0
4 10 3 0
4 0
13 0
4 10 0
3 9 0
3 9 4 0
3 9 4 0
3 0
3 9 0
5 13 0
3 9 4 0
4 10 0
3 0
3 9 4 0
3 9 0
4 10 0
3 9 0
3 9 0
4 10 3 0
4 3 9 0
3 9 4 0
4 10 3 0
4 10 0
4 10 3 0
4 10 0
3 9 0
3 9 4 0
3 9 0
3 9 0
6 0
4 10 3 0
4 0
13 0
3 9 4 0
4 10 0
4 10 0
4 10 3 0
3 9 0
3 9 4 0
4 3 9 0
3 9 4 0
3 9 0
4 10 3 0
3 9 0
3 9 4 0
3 9 0
4 10 0
3 9 0
3 9 0
3 9 0
4 10 3 0
4 3 9 0
3 9 0
4 10 0
4 10 3 0
4 10 3 0
3 9 4 0
3 9 4 0
13 0
4 10 0
13 0
4 10 0
3 9 0
4 10 0
4 10 3 0
4 10 0
4 10 3 0
3 9 0
3 9 4 0
3 9 4 0
4 10 3 0
5 0
4 10 0
13 0
4 3 9 0
3 0
3 9 4 0
3 0
4 3 9 0
3 9 0
4 10 3 0
3 9 0
5 13 14 0
4 10 3 0
4 10 3 0
4 0
4 10 0
3 0
3 9 4 0
4 10 0
4 0
4 10 0
4 0
4 0
3 9 0
4 10 0
4 3 9 0
3 9 0
4 10 3 0
3 0
4 3 9 0
3 9 4 0
3 0
3 9 4 0
4 3 9 0
3 0
4 10 3 0
3 9 0
4 10 3 0
3 0
5 14 0
3 9 0
3 9 0
4 3 9 0
4 10 0
4 10 3 0
4 10 0
4 10 3 0
4 3 9 0
3 9 4 0
3 9 0
4 10 0
13 0
4 0
4 10 3 0
4 10 3 0
3 9 4 0
4 10 0
3 9 0
3 0
5 0
3 9 0
3 9 0
3 9 0
3 9 0
4 10 3 0
3 9 0
4 3 9 0
4 10 3 0
3 0
4 10 0
4 0
4 0
4 10 3 0
4 0
4 10 3 0
3 9 0
4 0
4 10 3 0
4 10 3 0
3 9 0
4 3 9 0
3 9 0
3 9 0
4 10 3 0
3 9 4 0
13 0
3 9 0
4 10 3 0
3 9 4 0
4 10 3 0
3 9 0
4 10 0
4 0
4 10 0
3 9 0
3 9 0
4 3 9 0
4 10 0
3 9 0
3 9 0
13 0
4 10 0
13 0
4 10 0
3 0
4 10 3 0
4 3 9 0
3 9 4 0
3 0
3 9 4 0
3 9 0
3 9 0
3 9 0
4 10 3 0
3 9 0
3 9 0
4 3 9 0
4 0
4 10 0
13 0
3 9 0
4 10 0
3 9 0
3 9 4 0
3 9 4 0
3 9 0
4 10 3 0
3 0
4 10 0
3 9 0
3 9 0
3 9 0
3 9 4 0
4 10 3 0
4 10 0
13 0
13 0
4 10 0
3 9 4 0
4 10 3 0
3 0
4 10 3 0
4 10 3 0
3 9 4 0
4 10 3 0
4 0
4 10 3 0
4 10 0
3 0
4 10 0
3 9 0
4 10 3 0
4 3 9 0
13 0
3 9 4 0
13 0
4 10 0
4 10 0
4 10 0
4 3 9 0
3 9 0
4 10 3 0
3 0
4 10 3 0
4 3 9 0
4 10 3 0
3 9 0
4 10 0
3 9 4 0
4 10 0
3 9 4 0
3 9 0
3 9 4 0
3 9 4 0
3 0
13 0
4 10 3 0
5 13 0
3 0
3 9 4 0
4 10 0
3 9 0
4 10 3 0
3 9 4 0
4 0
4 10 3 0
4 10 0
3 9 4 0
3 9 0
3 9 0
4 10 0
3 9 0
4 0
4 10 3 0
4 10 3 0
4 10 0
4 10 0
3 9 0
13 0
3 9 0
4 3 9 0
4 10 0
3 0
4 10 0
3 0
5 14 0
4 10 0
4 3 9 0
4 10 0
3 9 0
3 9 0
4 10 0
3 9 4 0
4 10 0
4 0
4 10 0
4 10 0
3 9 0
3 0
4 10 3 0
3 9 4 0
3 0
3 0
4 10 3 0
3 0
4 10 0
3 0
4 10 3 0
3 0
3 9 0
4 10 3 0
4 10 3 0
4 10 0
4 10 0
3 9 4 0
4 0
3 9 0
4 10 3 0
3 9 0
4 10 3 0
3 9 0
4 10 3 0
3 9 0
4 10 0
4 10 0
4 10 0
3 9 0
4 10 0
3 9 0
3 9 4 0
4 10 0
3 9 0
4 0
3 9 4 0
4 3 9 0
4 10 0
4 10 0
4 10 3 0
3 9 4 0
3 9 0
3 9 4 0
3 9 0
3 0
4 10 0
3 9 4 0
4 10 3 0
3 0
4 10 0
3 9 4 0
5 13 14 0
13 0
3 9 4 0
4 10 3 0
3 9 0
4 10 0
13 0
13 0
3 9 4 0
13 0
3 9 4 0
4 10 3 0
3 9 0
4 10 0
13 0
4 10 0
4 10 3 0
3 9 0
3 9 0
4 3 9 0
4 10 0
13 0
4 10 0
4 10 3 0
3 9 0
3 9 0
3 9 0
4 10 3 0
3 9 0
4 10 3 0
4 0
4 3 9 0
4 10 3 0
4 10 0
3 9 4 0
3 0
3 9 4 0
3 0
3 9 4 0
4 0
4 0
4 3 9 0
3 9 4 0
4 10 0
4 10 3 0
4 10 3 0
4 10 3 0
3 0
3 9 0
3 9 0
4 10 0
3 9 0
3 9 4 0
4 3 9 0
4 10 0
4 10 0
3 9 0
3 9 4 0
4 0
3 9 0
4 10 0
3 9 4 0
4 10 3 0
3 9 0
4 10 0
6 0
3 9 4 0
4 10 3 0
4 10 3 0
4 10 3 0
13 0
4 10 0
3 9 0
3 9 0
4 10 0
4 10 3 0
13 0
3 9 0
3 9 0
3 9 0
5 0
4 10 3 0
4 0
4 10 3 0
3 0
4 10 3 0
3 9 0
3 9 0
5 0
3 9 0
4 10 3 0
4 10 0
4 10 3 0
3 9 4 0
3 9 4 0
3 9 0
3 9 0
4 10 0
4 0
4 10 3 0
3 9 4 0
3 9 0
4 0
3 9 0
3 9 4 0
4 10 3 0
3 9 4 0
4 10 0
13 0
3 0
3 0
4 10 3 0
4 3 9 0
3 9 0
3 9 0
3 9 0
3 9 4 0
4 10 3 0
3 0
4 10 3 0
4 3 9 0
4 10 3 0
3 9 4 0
4 10 0
3 9 4 0
4 10 0
4 10 0
13 0
4 10 0
3 9 0
4 10 3 0
3 9 0
13 0
13 0
4 10 3 0
3 9 0
4 0
4 10 0
4 10 3 0
3 9 0
4 3 9 0
3 9 4 0
4 10 0
4 3 9 0
4 10 3 0
4 10 0
3 9 4 0
4 3 9 0
3 9 4 0
4 0
4 0
4 0
4 10 0
4 10 3 0
4 0
3 0
4 10 0
4 10 3 0
3 9 4 0
4 3 9 0
4 10 0
13 0
3 9 0
4 10 3 0
3 0
4 10 0
3 9 4 0
3 9 0
4 0
4 3 9 0
3 9 0
4 10 3 0
3 9 0
3 9 0
3 9 0
3 0
4 10 0
13 0
4 10 0
3 9 0
4 0
4 10 3 0
4 3 9 0
4 10 3 0
4 0
4 10 3 0
3 0
4 3 9 0
4 3 9 0
3 9 0
3 9 0
4 10 3 0
3 9 0
4 10 3 0
3 9 0
3 0
3 0
4 0
4 0
4 0
3 0
4 0
3 0
3 0
4 0
4 0
3 0
4 0
4 0
3 0
3 0
4 0
4 0
3 0
3 0
4 0
4 0
4 0
4 0
6 0
3 0
4 0
4 0
3 0
4 0
3 0
4 0
3 0
4 0
4 0
3 0
4 0
3 0
3 0
3 0
3 0
4 0
13 0
4 0
4 0
4 0
3 0
4 0
3 0
5 0
3 0
13 0
3 0
3 0
3 0
3 0
3 0
3 0
4 0
13 0
3 0
3 0
4 0
4 0
4 0
3 0
4 0
4 0
4 0
3 0
3 0
3 0
3 0
3 0
4 0
4 0
3 0
3 0
13 0
3 0
4 0
3 0
4 0
13 0
3 0
3 0
3 0
4 0
4 0
4 0
3 0
4 0
3 0
4 0
4 0
3 0
4 0
3 0
3 0
4 0
3 0
3 0
4 0
4 0
4 0
4 0
13 0
4 0
3 0
4 0
4 0
3 0
4 0
3 0
4 0
4 0
3 0
4 0
3 0
4 0
3 0
3 0
4 0
4 0
3 0
13 0
3 0
3 0
13 0
3 0
3 0
3 0
3 0
3 0
3 0
3 0
4 0
4 0
4 0
3 0
3 9 0
5 0
3 9 0
3 9 0
4 10 0
4 10 3 0
3 9 4 0
4 10 3 0
3 9 4 0
3 9 4 0
4 10 3 0
3 0
3 9 4 0
4 10 0
4 10 3 0
5 14 0
4 10 3 0
4 10 3 0
4 10 0
3 9 0
3 9 0
3 0
4 10 0
4 10 0
3 0
4 10 3 0
4 10 3 0
3 9 4 0
3 9 0
13 0
3 9 4 0
3 0
4 0
4 10 0
3 9 4 0
3 9 0
4 10 0
3 9 4 0
3 0
4 10 0
4 10 0
3 9 4 0
4 10 3 0
3 9 4 0
4 10 0
4 3 9 0
4 10 3 0
3 0
4 10 3 0
4 10 3 0
13 0
4 10 3 0
4 0
4 10 3 0
3 9 0
3 9 4 0
4 10 0
3 9 4 0
3 9 0
4 3 9 0
3 9 0
4 3 9 0
4 0
4 10 3 0
3 9 0
4 0
4 10 0
4 10 0
4 10 0
13 0
3 0
4 10 3 0
4 10 0
4 10 3 0
3 9 0
4 10 0
3 0
3 0
3 9 0
3 0
4 10 3 0
4 0
4 10 0
3 9 4 0
4 10 0
3 9 0
4 10 3 0
3 9 4 0
4 10 0
3 9 0
3 9 4 0
4 10 0
3 0
3 0
3 9 4 0
4 10 3 0
4 0
4 10 3 0
3 9 4 0
3 9 0
4 10 3 0
3 9 0
4 10 3 0
4 3 9 0
4 3 9 0
4 10 3 0
4 3 9 0
3 9 0
3 9 0
4 10 3 0
13 0
3 9 4 0
4 10 3 0
4 10 3 0
4 10 3 0
3 9 0
4 10 0
4 10 3 0
4 3 9 0
4 10 0
3 0
13 0
3 9 0
3 9 4 0
3 9 0
3 9 0
4 10 0
3 9 0
3 9 0
3 9 0
3 9 0
4 10 0
4 10 3 0
13 0
4 10 3 0
3 9 4 0
4 10 0
3 9 4 0
3 9 0
4 10 3 0
4 10 3 0
3 9 4 0
4 0
3 9 0
3 9 4 0
4 10 3 0
4 10 0
13 0
4 10 0
4 10 3 0
4 3 9 0
3 9 0
3 9 0
4 10 0
4 10 0
4 10 3 0
3 9 4 0
3 9 0
3 9 0
13 0
4 10 0
4 10 0
4 10 0
3 9 4 0
3 9 0
3 9 0
13 0
4 10 0
3 0
3 9 0
3 0
3 9 0
4 10 3 0
4 3 9 0
4 10 3 0
3 0
4 10 0
3 9 0
3 0
4 0
4 10 0
3 9 0
3 9 0
4 10 3 0
3 9 0
4 0
4 10 0
4 3 9 0
6 0
4 0
4 10 0
3 9 0
4 0
4 10 0
4 0
4 10 0
4 10 3 0
3 9 0
4 0
5 0
4 0
3 9 4 0
3 0
3 0
4 10 0
13 0
3 9 0
4 3 9 0
4 10 0
4 10 0
4 10 3 0
3 9 0
4 10 0
4 3 9 0
4 10 0
4 3 9 0
3 9 0
4 10 0
4 10 3 0
3 9 4 0
13 0
3 9 4 0
5 13 0
3 9 4 0
4 0
4 10 0
4 10 3 0
4 3 9 0
3 9 4 0
4 10 0
3 9 0
4 10 0
13 0
4 10 0
4 10 3 0
3 9 4 0
4 3 9 0
4 0
3 9 4 0
3 9 4 0
3 9 0
3 0
4 10 0
3 9 0
3 9 4 0
4 10 3 0
4 10 3 0
3 9 0
3 9 0
4 3 9 0
3 9 0
13 0
4 10 3 0
3 9 0
3 9 4 0
4 10 3 0
4 10 0
13 0
4 10 3 0
4 0
3 0
3 9 4 0
4 10 0
4 0
3 9 0
3 9 0
4 10 0
3 0
3 9 0
4 10 0
5 13 14 0
3 9 0
4 10 3 0
13 0
4 10 3 0
3 9 4 0
4 10 0
4 10 3 0
4 0
3 0
3 9 4 0
4 0
3 9 0
4 10 3 0
4 10 0
4 10 3 0
3 9 0
4 10 3 0
3 9 4 0
4 10 3 0
4 10 3 0
13 0
4 10 0
3 9 0
3 0
13 0
3 9 0
4 0
4 3 9 0
4 3 9 0
3 9 0
4 3 9 0
4 10 0
3 9 0
4 10 0
4 10 0
3 9 0
4 3 9 0
4 10 3 0
3 9 4 0
3 9 0
4 10 0
4 10 0
4 10 3 0
4 10 3 0
3 9 0
3 0
4 10 3 0
3 9 0
13 0
4 10 3 0
3 9 0
4 0
3 9 4 0
4 10 0
3 9 4 0
4 0
4 0
4 0
3 0
13 0
6 0
3 0
4 0
3 0
13 0
3 0
4 0
3 0
4 0
3 0
4 0
3 0
4 0
3 0
13 0
3 0
3 0
4 0
13 0
13 0
3 0
3 0
3 0
13 0
4 0
3 0
4 0
4 0
4 0
3 0
3 0
3 0
3 0
4 0
4 0
4 0
3 0
4 0
4 0
3 0
4 0
4 0
3 0
4 0
4 0
4 0
3 0
3 0
4 0
4 0
4 0
4 0
13 0
4 0
3 0
4 0
3 0
3 0
4 0
4 0
3 0
4 0
3 0
4 0
3 0
4 0
4 0
3 0
3 0
4 0
3 0
3 0
5 0
4 0
3 0
4 0
3 0
4 0
3 0
3 0
3 0
3 0
3 0
4 0
4 0
3 0
3 0
3 0
3 0
4 0
3 0
4 0
3 0
4 0
13 0
3 0
3 0
4 0
3 0
4 0
3 0
4 0
3 0
4 0
3 0
3 0
3 0
4 0
4 0
4 0
3 0
3 0
3 0
4 0
3 0
4 0
4 0
3 0
4 0
3 0
4 0
3 0
3 0
4 0
3 0
3 0
3 0
4 0
4 0
3 0
4 0
4 0
4 0
4 0
3 0
3 0
11 1 0
11 -1 0
11 0
6 0
4 10 0
3 9 0
4 0
4 10 3 0
3 9 4 0
3 0
6 0
6 0
4 0
3 0
12 0
12 0
12 0
7 0
12 0
12 0
7 0
12 0
12 0
12 0
12 0
7 1 0
7 -1 0
7 0
4 10 0
3 9 4 0
4 10 3 0
4 0
6 0
3 0
3 9 0
6 0
4 0
3 0
6 0
12 0
12 0
12 0
12 0
12 0
12 0
13 1 0
13 -1 0
13 0
4 0
2 0
6 0
3 0
4 10 0
3 9 6 0
4 10 3 0
6 3 0
4 3 6 9 0
2 8 0
3 9 0
4 10 6 0
6 0
3 9 4 0
6 4 0
4 10 3 6 0
-1 0
3 0
2 0
6 0
4 0
12 0
12 0
12 0
12 0
12 0
12 0
12 0
12 0
12 0
15 0
15 0
15 0
15 0
15 0
15 0
15 0
15 0
15 0
15 0
15 -1 0
15 0
1 7 0
-1 7 0
7 0
7 0
15 0
7 0
7 0
15 0
15 0
15 0
15 0
7 0
7 0
15 0
15 0
7 0
15 0
7 0
15 0
15 0
15 0
7 0
7 0
15 0
15 0
7 0
15 0
-4 3 -9 0
3 -9 -10 0
4 -9 -10 0
-3 4 -10 0
4 10 1 0
4 3 1 9 0
4 10 3 1 0
3 9 1 0
4 10 -1 0
4 3 -1 9 0
3 9 -1 0
4 10 3 -1 0
3 0
4 0
13 0
13 0
13 0
13 0
13 0
13 0
13 0
13 0
13 0
3 9 4 0
4 0
3 9 0
4 10 3 0
4 10 0
3 0
6 0
6 0
6 0
3 0
4 0
4 0
6 0
2 0
3 0
4 3 6 9 0
4 10 0
4 10 3 0
4 10 6 0
6 3 0
3 9 6 0
3 9 0
2 8 0
6 4 0
4 10 3 6 0
6 0
3 9 4 0
-1 0
2 0
4 0
3 0
6 0
7 0
7 0
7 0
7 0
7 0
7 0
7 0
7 0
7 0
7 0
7 0
7 0
7 0
-8 -16 -5 0
-2 -16 -5 0
-2 -16 -5 0
-14 -2 -16 0
-14 -8 -16 0
-2 -11 -16 -5 0
-14 -2 -16 0
-8 -16 -5 0
-2 -16 -5 0
-14 -8 -16 0
2 -8 0
2 8 1 0
2 8 -1 0
2 0
1 7 0
1 12 0
-1 7 0
-1 12 0
7 0
12 0
7 11 1 0
7 1 0
11 1 0
7 11 -1 0
11 -1 0
7 -1 0
11 0
7 0
15 1 0
15 -1 0
15 0
3 -9 0
3 9 1 0
3 9 -1 0
3 0
13 1 0
13 -1 0
13 0
4 0
6 0
3 0
6 0
4 10 0
3 0
4 3 6 9 0
6 0
6 4 0
4 10 6 0
3 9 4 0
3 9 0
3 9 6 0
4 10 3 6 0
4 10 3 0
6 3 0
4 0
4 10 3 0
3 0
3 9 6 0
4 3 6 9 0
4 10 3 6 0
6 0
3 9 4 0
4 0
3 9 0
6 4 0
4 10 6 0
6 0
4 10 0
6 3 0
4 3 6 9 0
6 4 0
4 10 6 0
6 3 0
3 9 4 0
4 10 3 6 0
6 0
4 10 3 0
4 0
6 0
3 0
3 9 6 0
3 9 0
4 10 0
3 9 0
6 0
4 3 6 9 0
4 0
3 9 4 0
6 4 0
4 10 0
4 10 3 6 0
6 0
3 0
3 9 6 0
4 10 3 0
6 3 0
4 10 6 0
3 0
4 0
3 9 0
4 10 3 0
3 9 4 0
4 10 0
3 9 0
4 10 0
4 10 3 0
3 9 4 0
3 9 0
4 10 0
4 10 3 0
3 9 4 0
5 0
13 0
5 14 0
5 13 0
13 0
13 0
5 13 14 0
13 0
5 0
5 0
5 0
13 0
13 0
5 13 0
13 0
5 14 0
5 0
5 13 14 0
5 14 0
5 13 0
5 13 14 0
13 0
13 0
5 0
13 0
5 0
5 0
13 0
13 0
5 13 14 0
13 0
5 13 0
5 0
5 14 0
13 0
5 0
3 0
6 0
6 0
6 3 0
3 9 4 0
4 10 3 0
4 3 6 9 0
4 10 3 6 0
4 10 0
3 9 0
4 0
6 4 0
4 10 6 0
3 9 6 0
1 11 0
-1 11 0
11 0
12 0
12 0
12 0
12 0
12 0
12 0
12 0
12 0
12 0
4 0
6 0
3 9 0
3 0
3 9 4 0
4 10 3 0
4 10 0
6 0
4 0
6 0
3 0
7 1 0
7 -1 0
7 0
15 1 0
15 -1 0
15 0
15 0
15 0
15 0
15 0
15 0
15 0
15 0
15 0
15 0
15 0
12 1 0
12 -1 0
12 0
4 0
3 0
3 9 1 0
4 10 1 0
4 10 3 1 0
4 3 1 9 0
4 10 -1 0
4 3 -1 9 0
4 10 3 -1 0
3 9 -1 0
3 0
4 0
15 1 0
15 -1 0
15 0
4 10 0
3 9 4 0
3 9 0
4 10 3 0
4 10 0
3 9 4 0
3 9 0
4 10 3 0
4 -9 -10 0
3 -9 -10 0
-4 3 -9 0
-3 4 -10 0
3 9 0
3 9 4 0
4 0
3 0
4 10 3 0
4 10 0
4 10 0
4 10 3 0
4 0
3 0
3 9 4 0
3 9 0
3 0
4 10 0
3 9 0
4 10 3 0
3 9 4 0
4 0
3 0
4 10 3 0
4 10 0
4 0
3 9 0
3 9 4 0
3 0
4 0
15 1 0
15 -1 0
15 0
-13 -16 -5 0
-14 -13 -16 0
2 8 1 0
2 -1 0
15 1 0
15 -1 0
15 0
7 0
7 0
7 0
7 0
7 0
13 0
7 0
7 0
7 0
7 0
7 0
7 0
13 0
7 0
7 0
7 0
7 0
7 0
7 0
7 0
7 0
7 0
7 0
13 0
7 0
7 0
7 0
13 0
7 0
7 0
7 0
7 0
7 0
7 0
7 0
7 0
7 0
13 0
7 0
7 0
7 0
7 0
7 0
7 0
7 0
7 0
7 0
7 0
7 0
7 0
7 0
13 0
7 0
7 0
7 0
7 0
7 0
13 0
7 0
7 0
7 0
7 0
7 0
7 0
13 0
7 0
7 0
7 0
7 0
7 0
7 0
7 0
11 0
11 0
4 0
3 0
3 9 4 0
4 10 0
4 0
6 0
4 10 3 0
3 9 0
3 0
6 0
6 0
4 0
3 0
3 9 0
3 9 4 0
6 0
4 10 0
3 0
4 0
4 10 3 0
6 0
3 0
4 0
6 0
5 14 0
5 0
5 0
1 11 0
-1 11 0
11 0
15 0
15 0
15 0
15 0
15 0
15 0
15 0
15 0
15 0
15 0
15 -1 0
15 0
11 0
11 0
15 1 0
15 -1 0
15 0
7 0
7 0
7 0
7 0
15 0
15 0
15 0
15 0
15 0
15 0
15 0
15 0
15 0
11 0
11 0
1 11 0
-1 11 0
11 0
13 0
5 0
5 13 14 0
5 13 0
13 0
13 0
5 0
13 0
5 14 0
5 0
13 0
13 0
5 14 0
13 0
5 0
5 13 0
5 13 14 0
5 0
5 13 14 0
5 13 0
13 0
5 14 0
5 0
13 0
13 0
5 0
13 0
13 0
5 0
13 0
5 13 0
5 14 0
5 13 14 0
5 0
13 0
5 0
15 0
15 0
15 0
15 0
11 0
11 0
11 0
11 0
11 0
11 0
11 0
11 0
11 0
11 0
11 0
11 0
11 0
11 0
11 0
11 0
11 0
11 0
11 0
11 0
11 0
11 0
11 0
11 0
11 0
11 0
11 0
11 0
11 0
11 0
11 0
11 0
11 0
11 0
11 0
7 0
7 0
7 0
7 0
7 0
7 0
7 0
7 0
7 0
15 0
15 0
15 0
15 0
15 0
15 0
15 0
15 0
15 0
15 0
15 0
15 0
15 0
15 0
15 0
15 0
15 0
15 0
3 9 4 0
6 0
6 0
4 0
3 0
4 10 0
4 10 3 0
3 9 0
7 0
7 0
7 0
7 0
7 0
7 0
7 0
7 0
7 0
15 0
15 0
15 0
15 0
15 0
15 0
15 0
15 0
15 0
15 0
13 1 0
13 -1 0
13 0
11 0
7 0
11 0
11 0
11 0
15 0
11 0
15 0
11 0
11 0
11 0
7 0
15 0
7 0
11 0
11 0
11 0
11 0
11 0
15 0
11 0
7 0
7 0
11 0
11 0
15 0
1 7 0
-1 7 0
7 0
15 0
15 0
11 0
11 0
12 1 0
7 1 0
12 7 1 0
12 -1 0
7 -1 0
12 7 -1 0
7 0
12 0
6 0
6 0
6 0
6 0
6 0
6 0
6 0
6 0
6 0
15 0
15 0
-14 -8 -16 0
-8 -16 -5 0
-2 -11 -16 -5 0
-2 -16 -5 0
-14 -2 -16 0
-2 -16 -5 0
-14 -8 -16 0
-2 -16 -5 0
-14 -2 -16 0
-8 -16 -5 0
7 0
7 0
7 0
7 0
7 0
7 0
7 0
7 0
7 0
1 11 0
-1 11 0
11 0
15 0
13 0
15 0
15 0
13 0
13 0
13 0
13 0
15 0
15 0
15 0
13 0
15 0
13 0
15 0
13 0
13 0
15 0
15 0
13 0
7 1 0
7 -1 0
7 0
7 0
7 0
7 0
7 0
7 0
7 0
7 0
7 0
7 0
11 0
11 0
11 0
11 0
11 0
11 0
11 0
11 0
11 0
11 0
12 1 0
12 -1 0
12 0
1 12 0
1 7 0
-1 12 0
-1 7 0
12 0
7 0
3 0
3 9 4 0
3 9 0
4 0
4 10 3 0
4 10 0
3 9 0
3 9 4 0
3 0
4 10 3 0
4 0
4 10 0
3 9 0
3 9 4 0
3 0
4 10 3 0
4 0
4 10 0
3 0
4 0
2 0
6 0
6 4 0
4 10 0
6 3 0
6 0
4 3 6 9 0
3 9 0
2 8 0
4 10 3 6 0
4 10 6 0
4 10 3 0
3 9 6 0
3 9 4 0
-1 0
6 0
4 0
3 0
2 0
7 0
7 0
7 0
7 0
7 0
7 0
7 0
7 0
7 0
15 0
15 0
15 0
15 0
15 0
15 0
15 0
15 0
15 0
15 0
15 0
15 0
15 0
15 0
15 0
15 0
15 0
15 0
15 0
15 0
15 0
15 0
15 0
11 0
15 0
15 0
15 0
15 0
15 0
15 0
15 0
15 0
15 0
15 0
15 -1 0
15 0
7 0
7 0
7 0
7 0
7 0
7 0
7 0
7 0
7 0
7 0
7 0
7 0
7 0
7 0
7 0
7 0
7 0
7 0
7 0
7 0
7 0
7 0
7 0
7 0
7 0
7 0
7 0
7 0
7 0
7 0
7 0
7 0
7 0
7 0
7 0
7 0
7 0
7 0
7 0
7 0
7 0
7 0
7 0
7 0
7 0
7 0
7 0
7 0
7 0
7 0
7 0
7 0
7 0
7 0
7 0
7 0
7 0
7 0
7 0
7 0
7 0
7 0
7 0
7 0
15 0
15 0
3 -9 -10 0
4 -9 -10 0
-3 4 -10 0
-4 3 -9 0
4 10 3 1 0
4 3 1 9 0
4 10 1 0
3 9 1 0
4 3 -1 9 0
4 10 3 -1 0
3 9 -1 0
4 10 -1 0
3 0
4 0
1 12 0
1 11 0
-1 12 0
-1 11 0
12 0
11 0
15 0
15 0
7 0
15 7 0
7 0
15 0
15 0
7 0
15 7 0
15 0
15 0
7 0
15 7 0
7 0
15 0
15 0
7 0
15 0
15 0
15 7 0
7 0
7 0
7 0
15 0
7 0
7 0
13 1 0
13 -1 0
13 0
1 12 0
-1 12 0
12 0
7 1 0
7 -1 0
7 0
11 1 0
11 -1 0
11 0
4 10 0
3 9 4 0
3 9 0
4 10 3 0
4 10 0
3 9 4 0
3 9 0
4 10 3 0
4 10 3 0
4 0
4 10 0
6 0
3 6 0
4 3 9 0
6 0
3 9 0
4 6 0
4 3 6 9 0
3 6 9 0
3 0
4 10 3 6 0
4 10 6 0
-1 0
3 9 0
3 9 4 0
3 0
4 10 0
6 0
4 0
6 0
4 10 3 0
3 0
6 0
4 0
7 0
7 0
7 0
7 0
7 0
7 0
7 0
7 0
7 0
11 0
6 0
4 0
3 0
4 10 3 6 0
4 10 3 0
11 0
3 9 0
6 3 0
6 0
6 4 0
4 10 6 0
4 3 6 9 0
4 10 0
6 0
11 0
3 9 6 0
3 9 4 0
4 0
3 0
4 10 3 0
4 10 0
3 9 0
3 9 4 0
11 0
6 0
4 3 6 9 0
6 3 0
3 9 6 0
4 10 6 0
11 0
3 0
6 4 0
4 10 3 6 0
4 0
6 0
3 9 0
4 0
11 0
3 9 4 0
4 10 3 6 0
4 3 6 9 0
11 0
4 10 3 0
6 3 0
3 9 6 0
6 0
6 4 0
4 10 0
4 10 6 0
3 0
6 0
11 0
4 10 3 0
4 3 6 9 0
4 10 0
6 0
3 9 6 0
6 4 0
4 0
11 0
3 9 4 0
6 0
4 10 3 6 0
6 3 0
3 0
4 10 6 0
3 9 0
4 0
6 0
3 0
11 0
11 1 0
11 1 0
11 1 0
-1 11 0
11 -1 0
-1 11 0
11 0
13 0
11 0
15 0
7 0
11 7 0
11 0
11 7 0
7 0
15 0
13 0
13 0
15 0
7 0
11 0
11 0
13 0
11 7 0
7 0
15 0
11 0
13 0
15 0
7 0
7 0
7 0
7 0
7 0
7 0
7 0
7 0
7 0
7 0
1 7 0
-1 7 0
7 0
15 1 0
15 -1 0
15 0
12 1 0
11 12 1 0
11 1 0
11 -1 0
11 12 -1 0
12 -1 0
12 0
11 0
1 7 0
-1 7 0
7 0
12 0
12 0
12 0
12 0
12 0
12 0
12 0
12 0
12 0
12 0
13 0
13 0
13 0
13 0
11 0
1 15 0
-1 15 0
15 0
7 1 0
7 -1 0
7 0
15 0
15 0
15 0
15 0
15 0
15 -1 0
15 0
13 1 0
13 -1 0
13 0
3 9 4 0
3 9 0
4 10 3 0
4 10 0
-1 0
4 0
3 0
3 9 0
4 10 0
4 0
3 0
1 7 0
-1 7 0
7 0
15 0
15 0
15 0
15 0
15 0
15 0
15 0
15 0
15 0
15 0
15 0
6 0
4 0
3 0
2 0
3 0
4 0
6 0
2 0
-1 0
3 0
6 0
2 0
4 0
12 0
12 0
12 1 0
12 0
12 0
12 -1 0
12 0
15 0
15 0
3 9 4 0
3 0
4 10 0
6 0
6 0
4 0
4 10 3 0
3 9 0
4 0
3 0
6 0
4 3 9 0
3 0
4 0
3 9 0
4 10 0
4 10 3 0
3 9 0
4 0
4 10 0
4 10 3 0
4 3 9 0
3 0
4 0
3 0
3 0
4 0
4 10 0
4 10 0
4 10 3 0
3 0
3 9 0
3 9 0
4 3 9 0
4 0
4 10 3 0
3 9 4 0
4 0
3 0
3 0
4 0
7 0
7 0
15 7 0
15 0
15 0
7 0
7 0
15 7 0
15 0
15 0
15 0
15 0
15 0
15 0
15 0
15 0
15 0
15 0
15 0
15 0
3 0
6 0
2 0
4 0
4 10 3 6 0
6 4 0
3 9 6 0
6 0
4 10 6 0
4 10 0
4 3 6 9 0
3 9 0
6 3 0
4 10 3 0
2 8 0
3 9 4 0
-1 0
3 0
2 0
6 0
4 0
15 1 0
15 -1 0
15 0
2 8 12 1 0
12 1 0
12 1 0
2 12 -1 0
12 -1 0
12 -1 0
12 0
12 0
12 0
12 0
12 0
1 7 0
-1 7 0
7 0
3 0
4 0
6 0
6 0
4 10 0
3 9 0
3 9 4 0
4 10 3 0
4 0
3 0
6 0
6 0
4 10 0
3 9 4 0
3 9 0
3 0
4 0
4 10 3 0
6 0
3 9 0
6 0
4 10 0
6 0
3 9 4 0
3 0
4 0
4 10 3 0
6 0
3 9 4 0
3 0
6 0
3 9 0
4 10 0
4 10 3 0
4 0
6 0
3 0
4 0
15 0
15 0
15 0
15 0
13 1 0
13 -1 0
13 0
15 0
15 0
15 0
15 0
11 0
3 9 4 0
4 10 3 0
4 10 0
6 0
3 9 0
6 0
3 0
4 0
4 0
6 0
3 0
1 12 0
1 11 0
-1 12 0
-1 11 0
12 0
11 0
13 0
13 1 0
13 -1 0
13 0
7 1 0
7 -1 0
7 0
1 12 0
1 11 0
-1 12 0
-1 11 0
12 0
11 0
15 1 0
15 -1 0
15 0
1 15 0
-1 15 0
15 0
13 0
13 0
7 0
7 0
13 0
7 0
13 0
7 0
7 0
7 0
13 0
13 0
7 0
7 0
13 0
7 13 0
6 1 0
6 -1 0
6 0
15 1 0
15 -1 0
15 0
-3 4 -10 0
3 -9 -10 0
4 -9 -10 0
-4 3 -9 0
4 10 3 1 0
3 9 1 0
4 3 1 9 0
4 10 1 0
4 3 -1 9 0
4 10 -1 0
4 10 3 -1 0
3 9 -1 0
3 0
4 0
1 15 0
-1 15 0
15 0
15 0
15 0
11 0
15 0
15 0
15 0
15 0
15 0
15 0
15 0
15 0
1 7 0
-1 7 0
7 0
12 0
12 0
15 0
15 0
15 0
15 0
15 0
15 0
15 0
15 0
15 0
15 0
15 0
15 0
15 0
15 0
15 0
15 0
15 0
15 0
15 0
15 0
15 0
15 0
15 0
15 0
15 0
15 0
15 0
15 0
15 0
15 0
15 0
15 0
15 0
15 0
7 0
12 0
11 0
11 0
15 0
12 0
11 0
7 0
11 0
15 0
12 0
7 0
12 0
11 0
11 0
11 0
7 0
11 0
11 0
12 0
7 0
15 0
11 0
12 0
12 0
11 0
11 0
7 0
7 0
11 0
11 0
15 0
7 0
11 0
12 0
15 0
11 0
5 0
13 0
13 0
13 0
5 0
5 13 14 0
5 14 0
5 13 0
5 0
13 0
13 0
5 13 0
13 0
5 0
5 0
13 0
5 14 0
5 13 14 0
13 0
13 0
5 14 0
13 0
5 0
5 13 14 0
5 13 0
5 0
5 14 0
5 0
5 0
13 0
13 0
5 13 14 0
13 0
5 13 0
5 0
13 0
1 11 0
-1 11 0
11 0
11 1 0
11 -1 0
11 0
4 0
3 0
6 0
3 9 4 0
6 0
4 0
3 0
3 9 0
4 10 0
4 10 3 0
6 0
3 0
4 10 0
4 0
4 10 3 0
3 9 4 0
6 0
6 0
3 9 0
3 0
3 9 4 0
6 0
4 10 0
4 10 3 0
3 9 0
4 0
6 0
3 0
6 0
6 0
4 0
4 10 0
3 9 0
4 10 3 0
3 9 4 0
6 3 0
4 0
11 4 0
3 0
6 0
6 0
11 6 0
3 0
4 0
11 3 0
3 4 0
6 4 0
7 0
7 0
4 0
3 0
6 0
2 0
4 10 3 6 0
3 9 0
6 0
3 9 6 0
4 10 3 0
6 4 0
4 3 6 9 0
3 9 4 0
4 10 0
6 3 0
2 8 0
4 10 6 0
-1 0
2 0
6 0
4 0
3 0
15 0
15 0
15 0
15 0
15 0
15 0
15 0
15 0
15 0
15 0
7 0
12 0
7 0
12 7 0
12 0
12 0
12 7 0
7 0
12 0
7 0
12 0
12 7 0
7 0
12 0
7 0
7 0
7 0
12 7 0
12 0
12 0
12 0
12 7 0
7 0
7 0
12 0
4 0
3 0
3 9 4 0
4 10 0
3 0
3 9 0
4 0
4 10 3 0
3 9 4 0
4 10 3 0
3 9 0
4 10 0
4 0
3 0
3 0
4 10 0
3 9 4 0
4 0
3 9 0
4 10 3 0
3 9 0
3 0
4 10 3 0
4 0
4 10 0
3 9 4 0
15 0
15 0
15 0
15 0
15 0
15 0
15 0
15 0
15 0
15 0
15 0
15 0
15 0
15 0
15 0
15 0
15 0
15 0
7 0
6 0
3 9 0
3 9 4 0
4 0
3 0
4 10 3 0
6 0
4 10 0
6 0
4 0
3 0
11 0
11 0
1 7 0
-1 7 0
7 0
4 -9 -10 0
-3 4 -10 0
3 -9 -10 0
-4 3 -9 0
3 9 1 0
4 10 3 1 0
4 3 1 9 0
4 10 1 0
4 10 -1 0
4 10 3 -1 0
4 3 -1 9 0
3 9 -1 0
3 0
4 0
3 9 0
3 9 6 0
4 10 3 6 0
6 0
6 0
4 0
4 3 6 9 0
4 10 3 0
3 9 4 0
4 10 6 0
6 4 0
3 0
4 10 0
6 3 0
4 0
3 0
6 0
1 7 0
-1 7 0
7 0
2 -12 -8 0
2 0
12 0
-8 0
-1 0
-8 0
2 0
12 0
7 1 0
7 -1 0
7 0
4 0
3 0
6 0
4 10 0
4 10 3 0
6 0
3 9 4 0
3 9 0
4 0
6 0
3 0
7 1 0
7 -1 0
7 0
7 0
7 0
7 0
7 0
7 0
7 0
7 0
7 0
7 0
1 7 0
-1 7 0
7 0
7 0
7 0
7 0
7 0
7 0
7 0
7 0
7 0
7 0
1 12 0
-1 12 0
12 0
13 0
13 0
7 1 0
7 -1 0
7 0
4 -9 -10 0
3 -9 -10 0
-4 3 -9 0
-3 4 -10 0
4 10 3 0
3 0
3 9 4 0
4 0
3 9 0
4 10 0
3 0
4 10 0
3 9 4 0
3 9 0
4 0
4 10 3 0
4 10 3 0
4 10 0
4 0
3 0
3 9 0
3 9 4 0
3 9 0
3 0
3 9 4 0
4 10 3 0
4 0
4 10 0
3 0
4 0
7 0
7 0
7 0
7 0
7 0
7 0
7 0
7 0
7 0
12 1 0
12 -1 0
12 0
4 0
4 10 6 0
4 10 3 6 0
4 6 0
4 10 3 0
3 0
4 3 6 9 0
3 6 9 0
3 9 0
6 0
4 3 9 0
4 10 0
6 0
3 6 0
4 3 6 9 0
3 6 0
4 3 9 0
6 0
3 6 9 0
4 6 0
4 0
4 10 3 0
4 10 0
4 10 6 0
3 9 0
6 0
4 10 3 6 0
3 0
4 0
6 0
3 0
6 0
4 3 9 0
4 0
3 0
3 6 0
4 10 3 0
4 10 3 0
3 9 0
4 10 0
3 6 9 0
4 3 6 9 0
4 10 0
4 10 3 6 0
4 10 6 0
3 9 0
6 0
6 0
3 9 4 0
4 0
4 6 0
6 0
3 0
6 0
3 0
3 0
4 0
6 0
4 0
15 1 0
15 -1 0
15 0
3 9 0
3 0
3 9 0
3 0
3 -1 0
3 -1 0
3 0
3 9 0
3 0
3 9 0
3 0
3 9 0
3 0
3 9 0
3 0
3 9 0
3 0
3 0
3 0
3 0
3 0
3 9 0
3 9 0
3 0
3 0
7 1 0
7 -1 0
7 0
15 0
15 0
4 0
3 0
15 0
15 0
15 0
15 0
15 0
15 0
15 0
15 0
-14 -13 -2 -16 0
-13 -2 -16 -5 0
-13 -8 -16 -5 0
-14 -13 -8 -16 0
1 11 0
-1 11 0
11 0
11 1 0
11 -1 0
12 1 0
12 -1 0
12 0
13 1 0
13 -1 0
13 0
13 1 0
13 -1 0
13 0
13 0
5 0
5 13 14 0
5 0
5 13 0
5 0
13 0
13 0
13 0
5 14 0
5 13 14 0
5 13 0
13 0
5 14 0
5 0
13 0
5 0
13 0
13 0
5 13 0
5 13 14 0
13 0
5 0
5 0
5 14 0
13 0
5 13 0
5 13 14 0
5 0
13 0
5 0
13 0
13 0
5 14 0
7 1 0
7 -1 0
7 0
13 0
13 0
13 0
13 0
12 1 0
12 -1 0
12 0
11 1 0
11 -1 0
11 0
4 0
3 0
6 0
4 0
6 0
3 9 4 0
4 10 0
4 10 3 0
6 0
3 9 0
3 0
3 9 0
4 10 0
4 0
3 9 4 0
6 0
6 0
3 0
4 10 3 0
4 10 0
4 0
3 9 4 0
4 10 3 0
6 0
6 0
3 9 0
3 0
3 9 4 0
4 10 3 0
6 0
6 0
4 0
4 10 0
3 9 0
3 0
4 0
6 4 0
11 6 0
6 3 0
6 0
4 0
3 0
11 4 0
11 3 0
3 4 0
6 0
3 0
15 0
15 0
12 0
12 0
15 0
12 0
12 0
15 0
15 0
15 0
12 0
12 0
15 0
15 0
12 0
12 0
15 0
12 0
4 0
11 0
3 0
6 0
3 9 0
11 0
3 0
4 10 3 0
4 10 0
6 0
6 0
3 9 4 0
11 0
4 0
11 0
3 9 4 0
11 0
6 0
4 10 3 0
3 0
6 0
4 0
4 10 0
3 9 0
3 9 0
3 9 4 0
4 0
6 0
6 0
3 0
11 0
4 10 0
11 0
4 10 3 0
3 9 0
4 10 0
3 0
11 0
6 0
4 0
4 10 3 0
6 0
11 0
3 9 4 0
13 1 0
13 -1 0
13 0
7 0
7 0
7 0
7 0
7 0
7 0
7 0
7 0
7 0
2 0
6 0
3 0
4 0
6 0
4 0
3 0
2 0
-1 0
3 0
4 0
2 0
6 0
12 0
12 0
12 0
12 0
12 0
12 0
12 0
12 0
12 0
12 0
12 0
12 0
12 0
15 0
15 0
15 0
15 0
15 0
15 0
15 0
15 0
15 0
15 0
15 0
15 0
15 0
15 0
3 -9 -10 0
4 -9 -10 0
-4 3 -9 0
-3 4 -10 0
4 10 3 1 0
4 10 1 0
4 3 1 9 0
3 9 1 0
4 10 -1 0
4 3 -1 9 0
4 10 3 -1 0
3 9 -1 0
3 0
4 0
11 1 0
11 -1 0
11 0
13 1 0
13 -1 0
13 0
12 1 0
12 -1 0
12 0
3 0
4 0
6 0
3 9 4 0
3 9 0
6 0
6 4 0
3 9 6 0
4 10 0
4 10 3 6 0
4 10 6 0
4 3 6 9 0
6 0
4 10 3 0
3 0
6 3 0
4 0
3 9 4 0
6 0
4 10 0
4 10 6 0
6 4 0
4 0
4 10 3 0
6 0
3 9 0
4 3 6 9 0
3 9 6 0
4 10 3 6 0
3 0
6 3 0
4 10 3 0
3 0
6 0
6 0
4 10 3 6 0
4 3 6 9 0
6 3 0
4 10 0
3 9 6 0
4 0
3 9 0
6 4 0
4 10 6 0
3 9 4 0
4 3 6 9 0
6 4 0
4 0
4 10 6 0
3 9 4 0
3 9 6 0
4 10 3 0
6 3 0
6 0
3 9 0
3 0
4 10 0
4 10 3 6 0
6 0
3 0
4 0
6 0
15 0
15 0
15 0
15 0
15 0
15 0
15 0
15 0
15 0
15 0
15 0
15 0
15 0
15 0
15 0
15 0
15 0
15 0
11 0
11 0
15 0
7 0
15 0
7 0
15 0
7 0
13 0
13 0
13 0
13 0
13 0
13 0
13 0
13 0
13 0
13 0
15 0
11 0
12 0
11 0
15 0
12 0
15 0
11 0
12 0
12 0
11 0
11 0
12 0
15 0
15 0
15 0
11 0
15 0
11 0
12 0
12 0
15 0
15 0
12 0
11 0
12 0
11 0
12 0
11 0
15 0
4 10 0
3 0
3 9 0
3 9 4 0
4 10 3 0
4 0
3 9 0
3 0
3 9 4 0
4 0
4 10 3 0
4 10 0
3 9 0
3 0
3 9 4 0
4 0
4 10 3 0
4 10 0
1 15 0
-1 15 0
15 0
15 1 0
15 -1 0
15 0
4 0
3 0
7 0
7 0
7 0
7 0
7 0
7 0
7 0
7 0
7 0
7 1 0
7 -1 0
7 0
12 0
12 0
12 0
12 0
7 0
7 0
7 0
7 0
7 0
7 0
7 0
7 0
7 0
7 0
7 0
7 0
7 0
7 0
15 1 0
15 -1 0
15 0
13 0
5 14 11 0
5 13 14 0
13 0
11 5 0
5 14 11 0
11 0
11 5 0
5 0
11 0
5 14 0
11 5 0
13 0
5 14 0
5 14 0
11 0
11 5 0
5 0
5 13 14 0
5 14 0
5 0
5 13 0
11 0
5 0
5 14 0
5 13 0
13 0
5 14 11 0
13 0
5 14 0
13 0
5 14 11 0
5 14 0
11 0
13 0
5 14 0
11 5 0
11 5 0
13 0
5 0
5 13 0
5 13 0
5 14 11 0
11 0
5 14 11 0
13 0
5 14 0
5 0
11 5 0
5 13 14 0
5 14 0
5 14 0
13 0
5 13 14 0
5 0
11 0
5 14 0
13 0
13 0
11 5 0
5 14 11 0
5 14 11 0
11 0
5 0
5 0
13 0
5 0
11 0
5 0
11 0
5 0
11 0
13 0
11 0
5 0
5 0
-14 -13 -2 -16 0
-13 -8 -16 -5 0
-14 -13 -8 -16 0
-13 -2 -16 -5 0
13 1 0
13 -1 0
13 0
-13 -16 -5 0
-14 -13 -16 0
5 0
2 0
5 14 0
2 0
2 0
5 0
2 0
5 14 0
2 0
5 0
5 14 0
2 0
2 0
5 14 0
13 1 0
13 -1 0
13 0
15 0
15 0
1 11 0
-1 11 0
11 0
15 0
15 0
15 0
15 0
15 0
15 0
15 0
15 0
15 0
15 0
15 0
15 0
15 0
15 0
15 0
15 0
15 0
15 0
-14 -13 -2 -16 0
-14 -13 -8 -16 0
-13 -2 -16 -5 0
-13 -8 -16 -5 0
7 1 0
7 -1 0
7 0
1 11 0
-1 11 0
11 0
1 15 0
-1 15 0
15 0
-8 -16 -5 0
-2 -11 -16 -5 0
-2 -16 -5 0
-14 -8 -16 0
-14 -2 -16 0
-2 -16 -5 0
-8 -16 -5 0
-14 -8 -16 0
-14 -2 -16 0
-2 -16 -5 0
-16 -5 0
-14 -16 0
1 15 0
-1 15 0
15 0
1 11 0
1 12 0
-1 11 0
-1 12 0
11 0
12 0
7 0
7 0
7 0
7 0
7 0
7 0
7 0
7 0
7 0
11 0
11 0
11 0
11 0
11 0
11 0
11 0
11 0
11 0
12 0
12 0
-4 3 -9 0
-3 4 -10 0
3 -9 -10 0
4 -9 -10 0
4 3 1 9 0
4 10 3 1 0
4 10 1 0
3 9 1 0
4 10 3 -1 0
3 9 -1 0
4 10 -1 0
4 3 -1 9 0
3 0
4 0
3 9 0
3 0
3 0
3 9 0
3 0
3 9 0
3 0
3 0
11 0
11 0
15 1 0
15 -1 0
15 0
-2 -11 -16 -5 0
-8 -16 -5 0
-2 -16 -5 0
-2 -16 -5 0
-14 -8 -16 0
-14 -2 -16 0
-8 -16 -5 0
-2 -16 -5 0
-14 -8 -16 0
-14 -2 -16 0
-16 -5 0
-14 -8 -16 0
-2 -16 -5 0
-14 -2 -16 0
-14 -16 0
-8 -16 -5 0
11 0
11 0
11 0
11 0
11 0
11 0
11 0
11 0
11 0
15 1 0
15 -1 0
15 0
7 1 0
7 -1 0
7 0
-10 -9 4 -6 0
-4 -9 3 -6 0
-10 -9 3 -6 0
-10 -3 4 -6 0
4 10 1 -6 0
4 3 1 9 -6 0
3 9 1 -6 0
4 10 3 1 -6 0
4 10 -1 -6 0
4 3 -1 9 -6 0
3 9 -1 -6 0
4 10 3 -1 -6 0
3 -6 0
4 -6 0
1 11 0
-1 11 0
11 0
15 0
15 0
15 0
15 0
15 -1 0
15 -1 0
15 0
15 0
15 0
11 0
11 0
11 0
11 0
11 0
11 0
11 0
11 0
11 0
3 0
4 0
13 0
3 9 0
13 0
3 0
4 10 0
13 0
3 9 4 0
4 0
4 10 3 0
4 10 0
4 0
3 9 0
3 9 4 0
4 10 3 0
3 0
13 0
13 0
4 10 0
13 0
3 9 4 0
4 0
3 9 0
13 0
3 0
4 10 3 0
3 9 4 0
13 0
4 0
3 9 0
3 0
4 10 3 0
4 10 0
13 0
3 0
4 0
13 0
11 0
11 0
11 0
11 0
11 0
5 14 0
5 0
2 8 0
2 0
2 0
5 0
2 0
2 0
2 8 0
5 14 0
5 0
2 0
2 8 0
2 0
5 14 0
5 14 0
2 8 0
2 0
2 8 1 0
2 -1 0
1 15 0
-1 15 0
15 0
15 0
15 0
15 0
15 0
15 0
15 0
15 0
15 0
15 0
15 0
1 15 0
-1 15 0
15 0
15 0
15 0
1 12 0
-1 12 0
12 0
15 0
15 0
15 0
15 0
15 0
15 0
15 0
15 0
15 0
15 0
15 -1 0
15 0
3 9 0
3 0
3 9 0
3 0
3 0
3 9 0
3 0
3 0
15 0
15 0
15 0
15 0
15 1 0
15 -1 0
15 0
12 1 0
12 -1 0
12 0
2 -8 0
5 0
2 5 14 -8 0
5 14 0
2 -8 0
5 0
2 -8 -1 0
5 -1 0
2 -8 0
5 0
11 1 0
11 -1 0
11 0
4 10 0
4 10 0
1 7 0
-1 7 0
7 0
15 0
15 0
-16 -5 0
-14 -16 0
1 12 0
1 11 0
-1 12 0
-1 11 0
12 0
11 0
12 0
12 0
1 7 0
-1 7 0
7 0
11 0
7 0
12 0
11 0
12 0
12 0
11 0
12 0
7 0
12 0
7 0
12 0
11 0
11 0
11 0
12 0
11 0
11 0
12 0
11 0
12 0
11 0
12 0
12 0
11 0
11 0
7 0
12 0
12 0
7 0
11 0
12 0
12 0
11 0
12 0
11 0
7 0
11 0
-14 -13 -8 -16 0
-13 -2 -16 -5 0
-14 -13 -2 -16 0
-13 -8 -16 -5 0
15 1 0
15 -1 0
15 0
7 0
7 0
7 0
7 0
7 0
7 0
7 0
7 0
7 0
15 0
15 0
15 0
15 0
15 0
15 0
15 0
15 0
2 0
3 0
4 0
6 0
3 9 0
4 10 3 0
4 10 3 6 0
4 10 0
6 0
3 9 6 0
6 4 0
2 8 0
4 10 6 0
3 9 4 0
4 3 6 9 0
6 3 0
-1 0
4 0
2 0
6 0
3 0
1 15 0
-1 15 0
15 0
3 0
4 10 3 0
4 0
3 9 4 0
6 0
6 0
4 10 0
3 9 0
12 1 0
7 1 0
12 7 1 0
12 -1 0
12 7 -1 0
7 -1 0
7 0
12 0
15 0
15 0
15 0
15 0
15 0
15 0
15 0
15 0
15 0
15 0
15 0
12 0
12 0
11 0
11 0
12 0
15 0
7 0
15 0
7 0
12 0
12 0
7 0
15 0
15 0
12 0
7 0
7 0
12 0
15 0
13 0
13 0
13 0
13 0
13 0
13 0
13 0
13 0
15 0
15 0
15 0
15 0
15 0
15 0
3 -9 -10 0
-4 3 -9 0
4 -9 -10 0
-3 4 -10 0
4 10 3 1 0
3 9 1 0
4 10 1 0
4 3 1 9 0
4 3 -1 9 0
4 10 -1 0
4 10 3 -1 0
3 9 -1 0
3 0
4 0
7 0
7 0
7 0
7 0
7 0
7 0
13 1 0
13 -1 0
13 0
1 7 0
-1 7 0
7 0
12 1 0
12 -1 0
12 0
12 0
12 0
12 0
12 0
12 0
12 0
12 0
12 0
12 0
12 0
1 12 0
1 11 0
-1 12 0
-1 11 0
12 0
11 0
7 1 0
7 -1 0
7 0
7 0
7 0
7 0
7 0
7 0
7 0
7 0
7 0
7 0
7 0
7 0
7 0
7 0
7 0
7 0
7 0
1 7 0
-1 7 0
7 0
12 0
12 0
12 0
12 0
15 0
15 0
15 0
15 0
15 0
15 0
15 -1 0
15 0
15 0
15 0
7 0
7 0
7 0
7 0
7 0
7 0
7 0
7 0
7 0
2 0
11 0
2 8 0
5 14 0
11 0
2 0
2 0
2 0
11 0
5 14 0
11 0
2 8 0
2 0
11 0
2 0
11 0
5 14 0
2 8 0
5 14 0
11 0
2 0
11 0
2 8 0
2 0
1 7 0
-1 7 0
7 0
15 1 0
15 -1 0
15 0
12 1 0
12 -1 0
12 0
15 1 0
15 -1 0
15 0
11 0
11 0
-3 4 -10 0
3 -9 -10 0
-4 3 -9 0
4 -9 -10 0
4 10 1 0
3 9 1 0
4 10 3 1 0
4 3 1 9 0
4 3 -1 9 0
4 10 -1 0
4 10 3 -1 0
3 9 -1 0
3 0
4 0
7 0
15 0
7 0
15 0
7 0
7 0
15 0
7 0
7 0
7 0
15 0
7 0
15 0
11 0
11 0
11 0
11 0
11 0
7 0
11 0
11 0
11 0
11 0
11 0
11 0
11 0
11 0
11 0
11 0
11 0
11 0
11 0
11 0
11 0
11 0
11 0
11 0
11 0
11 0
11 0
11 0
11 0
11 0
11 0
11 0
7 0
11 0
11 0
11 0
11 0
11 0
11 0
11 0
11 0
11 0
11 0
11 0
11 0
11 0
11 0
11 0
11 0
11 0
11 0
11 0
12 1 0
12 -1 0
12 0
15 0
15 0
15 0
15 0
15 0
15 0
15 0
15 0
15 0
15 0
15 0
15 0
15 0
15 0
15 0
15 0
15 0
15 0
15 0
15 0
15 0
15 0
15 0
15 0
15 0
15 0
15 0
-3 4 -10 0
4 -9 -10 0
-4 3 -9 0
3 -9 -10 0
4 3 1 9 0
3 9 1 0
4 10 1 0
4 10 3 1 0
3 9 -1 0
4 10 3 -1 0
4 10 -1 0
4 3 -1 9 0
3 0
4 0
15 0
15 0
15 0
15 0
13 0
13 0
13 0
13 0
13 0
13 0
13 0
13 0
13 0
13 0
13 0
13 0
13 0
13 0
13 0
13 0
13 0
13 0
13 0
13 0
13 0
13 0
13 0
13 0
13 0
13 0
13 0
13 0
13 0
13 0
15 0
15 0
15 0
15 0
15 -1 0
15 0
15 0
15 0
4 -9 -10 0
3 -9 -10 0
-4 3 -9 0
-3 4 -10 0
4 10 3 0
4 10 0
3 9 4 0
4 0
3 9 0
3 0
4 10 3 0
3 9 4 0
4 10 0
3 9 0
4 0
3 0
3 0
4 10 0
3 9 4 0
4 10 3 0
4 0
3 9 0
3 9 0
4 10 0
3 9 4 0
4 10 3 0
4 0
3 0
3 0
4 0
6 0
4 0
6 0
3 0
3 9 4 0
4 10 3 0
4 10 0
3 9 0
4 0
6 0
3 0
3 0
4 10 0
4 10 3 0
6 0
6 0
3 9 4 0
3 9 0
4 0
3 0
4 0
6 0
11 0
12 0
12 0
15 13 1 0
13 1 0
13 15 1 0
15 1 0
15 -1 0
13 15 -1 0
15 13 -1 0
13 -1 0
15 0
13 0
3 9 4 0
3 0
4 10 3 0
6 0
4 10 0
4 10 6 0
4 3 6 9 0
6 0
4 0
3 9 0
3 9 6 0
6 3 0
4 10 3 6 0
6 4 0
6 0
4 0
3 0
3 0
4 0
6 0
4 10 3 6 0
3 9 4 0
3 9 0
4 3 6 9 0
4 10 6 0
6 0
3 9 6 0
4 10 0
6 3 0
4 0
6 0
3 0
6 4 0
4 10 3 0
3 0
4 3 6 9 0
3 9 6 0
3 9 4 0
6 4 0
6 0
4 10 0
4 10 3 6 0
6 0
4 10 3 0
6 3 0
4 0
4 10 6 0
3 9 0
4 3 6 9 0
4 10 0
3 9 0
4 10 3 0
6 4 0
3 9 4 0
3 9 6 0
4 10 3 6 0
3 0
6 3 0
6 0
6 0
4 10 6 0
4 0
3 9 4 0
3 0
3 9 6 0
4 10 6 0
4 10 3 0
3 9 0
4 3 6 9 0
6 0
6 3 0
4 10 3 6 0
4 0
6 4 0
6 0
4 10 0
4 0
3 0
6 0
1 12 0
1 11 0
-1 12 0
-1 11 0
12 0
11 0
7 1 0
7 -1 0
7 0
12 1 0
12 -1 0
12 0
11 0
1 12 0
-1 12 0
12 0
7 0
7 0
7 0
7 0
7 0
7 0
7 0
7 0
7 0
11 0
11 0
-2 -11 -16 -5 0
-8 -16 -5 0
-14 -8 -16 0
-2 -16 -5 0
-14 -2 -16 0
-2 -16 -5 0
-14 -8 -16 0
-2 -16 -5 0
-14 -2 -16 0
-8 -16 -5 0
15 1 0
15 -1 0
15 0
7 0
7 0
7 0
7 0
7 0
7 0
7 0
7 0
7 0
-14 -8 -16 0
-8 -16 -5 0
-2 -16 -5 0
-2 -11 -16 -5 0
-14 -2 -16 0
-2 -16 -5 0
-2 -16 -5 0
-14 -2 -16 0
-8 -16 -5 0
-14 -8 -16 0
15 0
15 0
15 0
15 0
15 0
15 0
15 0
15 0
15 0
15 0
12 1 0
12 -1 0
12 0
15 0
15 0
12 1 0
12 -1 0
12 0
15 0
15 0
7 1 0
7 -1 0
7 0
5 0
13 0
5 0
5 13 14 0
13 0
13 0
5 0
5 13 0
13 0
5 14 0
13 0
5 13 0
5 14 0
13 0
5 0
5 0
5 13 14 0
13 0
5 0
5 14 0
13 0
5 13 0
5 13 14 0
13 0
5 0
13 0
5 0
5 13 0
5 0
13 0
5 13 14 0
13 0
5 14 0
13 0
5 0
13 0
3 6 0
4 10 3 6 0
4 3 6 9 0
4 10 0
4 6 0
3 0
6 0
4 10 6 0
4 10 3 0
4 3 9 0
3 9 0
3 6 9 0
6 0
4 0
6 -1 0
4 -1 0
3 -1 0
4 10 3 0
3 0
6 0
4 0
3 9 4 0
3 9 0
6 0
4 10 0
3 0
3 4 0
4 0
6 4 0
6 0
6 3 0
-1 0
11 1 0
11 -1 0
11 0
1 15 0
-1 15 0
15 0
11 0
11 0
2 0
2 8 0
5 0
2 0
5 14 0
2 8 0
2 0
2 0
5 0
5 14 0
5 14 0
5 0
2 0
2 0
2 8 0
2 0
5 14 0
2 8 0
4 10 0
6 0
4 0
4 10 3 0
6 0
3 0
3 9 4 0
3 9 0
6 0
4 0
3 0
7 0
7 0
7 0
7 0
7 0
7 0
7 0
7 0
7 0
13 1 0
13 -1 0
13 0
3 0
4 0
3 9 0
3 9 4 0
4 10 3 0
6 0
4 10 0
6 0
4 0
6 0
3 0
15 1 0
15 -1 0
15 0
11 0
11 0
11 0
11 0
11 0
11 0
11 0
11 0
11 0
11 0
11 0
11 0
11 0
11 0
15 1 0
15 -1 0
15 0
1 12 0
-1 12 0
12 0
13 1 0
13 -1 0
13 0
12 1 0
12 -1 0
12 0
15 1 0
15 -1 0
15 0
12 1 0
12 -1 0
12 0
4 0
3 0
1 12 0
-1 12 0
12 0
3 0
13 0
4 0
13 0
3 9 4 0
3 9 0
4 10 3 0
13 0
4 0
4 10 0
3 0
3 9 4 0
4 10 3 0
3 9 0
13 0
4 10 0
4 0
3 0
13 0
3 9 4 0
4 10 0
3 9 0
3 0
4 10 3 0
13 0
13 0
4 0
3 0
3 9 4 0
4 10 0
13 0
4 10 3 0
13 0
3 9 0
4 0
3 0
4 0
13 0
1 7 0
1 12 0
-1 7 0
-1 12 0
7 0
12 0
3 -9 -10 0
-3 4 -10 0
-4 3 -9 0
4 -9 -10 0
4 10 1 0
4 10 3 1 0
4 3 1 9 0
3 9 1 0
4 3 -1 9 0
4 10 3 -1 0
4 10 -1 0
3 9 -1 0
3 0
4 0
-13 -2 -16 -5 0
-13 -2 -16 -5 0
-14 -16 0
-14 -13 -16 0
-13 -16 -5 0
-16 -5 0
15 1 0
15 -1 0
15 0
11 1 0
11 -1 0
11 0
15 1 0
15 -1 0
15 0
11 0
11 0
11 0
11 0
12 0
11 0
11 0
11 0
12 0
12 0
11 0
11 0
2 7 -8 0
11 0
11 0
11 0
11 0
11 0
7 0
11 0
11 0
7 0
12 0
2 -8 0
11 0
12 0
11 0
11 0
11 0
11 0
11 0
12 0
11 0
11 0
12 0
11 0
7 0
11 0
11 0
12 0
11 0
11 0
7 0
12 0
11 0
11 0
11 0
11 0
12 0
12 0
11 0
11 0
11 0
11 0
12 0
11 0
11 0
11 0
12 0
12 0
11 0
11 0
2 7 -8 0
11 0
11 0
11 0
11 0
11 0
7 0
11 0
11 0
7 0
12 0
2 -8 0
11 0
12 0
11 0
11 0
11 0
11 0
11 0
12 0
11 0
11 0
12 0
11 0
7 0
11 0
11 0
12 0
11 0
11 0
7 0
12 0
11 0
11 0
11 0
11 0
12 0
12 0
15 0
15 0
4 -9 -10 0
-3 4 -10 0
3 -9 -10 0
-4 3 -9 0
4 10 1 0
4 10 3 1 0
3 9 1 0
4 3 1 9 0
3 9 -1 0
4 3 -1 9 0
4 10 -1 0
4 10 3 -1 0
3 0
4 0
12 0
12 0
13 1 0
13 -1 0
13 0
1 11 0
-1 11 0
11 0
11 0
11 0
-13 -14 5 0
13 0
5 0
13 0
5 14 0
13 0
13 0
5 0
5 14 0
5 14 0
13 0
5 0
13 0
5 14 0
5 0
13 0
13 0
13 0
5 0
15 0
15 0
15 0
15 0
15 0
15 0
7 0
7 0
7 0
7 0
7 0
7 0
7 0
7 0
7 0
12 0
11 0
12 0
11 0
12 1 0
12 7 1 0
7 1 0
12 7 -1 0
7 -1 0
12 -1 0
7 0
12 0
1 15 0
-1 15 0
15 0
7 0
7 0
7 0
7 0
7 1 0
7 -1 0
7 0
11 1 0
11 -1 0
11 0
11 0
3 0
2 0
6 0
4 0
3 9 0
3 9 4 0
4 10 3 0
6 3 0
4 3 6 9 0
3 9 6 0
4 10 3 6 0
2 8 0
6 0
4 10 6 0
6 4 0
4 10 0
-1 0
2 0
6 0
3 0
4 0
7 0
7 0
12 0
13 0
11 12 0
11 0
12 0
12 0
13 0
11 12 0
11 0
12 0
13 0
11 0
11 0
13 0
13 0
11 0
11 0
13 0
11 0
13 0
13 0
13 0
11 0
11 0
13 0
13 0
11 0
11 0
11 0
13 0
11 0
15 0
15 0
11 0
11 0
15 0
15 0
11 0
11 0
15 0
15 0
11 0
15 0
11 0
11 0
15 0
15 0
11 0
12 1 0
12 -1 0
12 0
15 0
15 0
13 0
13 0
13 0
13 0
15 0
15 0
12 1 0
12 -1 0
12 0
1 11 0
-1 11 0
11 0
7 0
7 0
13 1 0
13 -1 0
13 0
7 1 0
7 -1 0
7 0
15 1 0
15 -1 0
15 0
7 1 0
7 -1 0
7 0
15 0
15 0
4 -9 -10 0
-3 4 -10 0
3 -9 -10 0
-4 3 -9 0
4 10 3 0
3 9 4 0
4 10 0
3 9 0
3 0
4 0
4 0
4 10 0
3 0
4 10 3 0
3 9 0
3 9 4 0
3 9 0
4 10 0
3 9 4 0
3 0
4 10 3 0
4 0
3 0
3 9 0
4 0
3 9 4 0
4 10 3 0
4 10 0
3 0
4 0
13 0
13 0
13 0
13 0
13 0
13 0
13 0
13 0
13 0
13 1 0
13 -1 0
13 0
7 0
1 11 0
-1 11 0
11 0
1 7 0
-1 7 0
7 0
15 0
15 0
15 0
15 0
15 0
15 0
15 0
7 0
7 0
7 0
7 0
7 0
7 0
7 0
7 0
7 0
7 0
7 0
7 0
7 0
7 0
7 0
7 0
7 0
7 0
7 0
7 0
7 0
15 0
7 0
7 0
7 0
15 0
7 1 0
7 -1 0
7 0
15 0
15 0
13 0
13 0
13 0
13 0
13 0
13 0
13 0
13 0
13 0
13 0
15 0
15 0
15 0
15 0
15 0
15 0
15 0
15 0
15 0
7 0
7 0
11 0
12 0
12 0
11 0
11 0
12 0
12 0
11 0
12 0
12 0
11 0
11 0
11 0
12 0
12 0
11 0
11 0
12 0
15 0
15 0
5 0
2 0
2 0
5 14 0
2 8 0
2 8 0
5 0
2 0
5 14 0
2 0
2 0
5 14 0
2 0
2 8 0
5 0
5 14 0
2 8 0
2 0
11 1 0
11 -1 0
11 0
1 12 0
1 11 0
-1 12 0
-1 11 0
12 0
11 0
5 0
13 0
5 14 0
13 0
13 0
5 0
5 13 14 0
5 0
5 13 0
13 0
5 13 0
5 0
13 0
5 13 14 0
13 0
5 14 0
5 0
13 0
5 13 0
5 0
5 0
5 13 14 0
13 0
13 0
5 14 0
13 0
5 0
5 13 14 0
5 13 0
13 0
13 0
13 0
5 0
5 14 0
5 0
13 0
15 0
15 0
15 0
15 0
15 0
15 0
15 0
15 0
15 0
15 0
15 -1 0
15 0
7 1 0
7 -1 0
7 0
15 1 0
15 -1 0
15 0
11 0
11 0
12 0
11 0
12 0
12 0
11 0
11 0
11 0
11 0
12 0
12 0
12 0
11 0
11 0
12 0
12 0
12 0
11 0
11 0
12 0
11 0
12 0
12 0
15 0
15 0
15 0
15 0
3 0
6 0
4 0
6 0
4 10 0
3 9 0
4 3 6 9 0
4 10 6 0
4 0
6 0
3 0
4 10 3 0
3 9 6 0
6 4 0
3 9 4 0
4 10 3 6 0
6 3 0
3 9 0
3 0
6 0
4 10 3 6 0
3 9 6 0
4 10 3 0
4 10 6 0
6 3 0
4 0
3 9 4 0
4 10 0
6 4 0
6 0
4 3 6 9 0
4 10 3 6 0
4 10 0
6 0
4 10 6 0
4 0
4 3 6 9 0
6 3 0
3 9 4 0
3 9 6 0
3 0
6 4 0
4 10 3 0
3 9 0
6 0
3 9 6 0
6 4 0
3 9 0
3 0
4 0
4 10 3 0
4 10 6 0
6 3 0
4 3 6 9 0
3 9 4 0
6 0
4 10 0
6 0
4 10 3 6 0
3 0
6 0
4 0
13 1 0
13 -1 0
13 0
-4 3 -9 0
-3 4 -10 0
4 -9 -10 0
3 -9 -10 0
4 10 3 1 0
4 10 1 0
4 3 1 9 0
3 9 1 0
4 10 -1 0
4 10 3 -1 0
3 9 -1 0
4 3 -1 9 0
3 0
4 0
4 0
3 0
6 0
4 0
4 10 6 0
3 0
3 9 6 0
4 10 3 0
4 3 6 9 0
3 9 4 0
6 0
6 0
6 4 0
3 9 0
4 10 0
4 10 3 6 0
6 3 0
4 10 3 6 0
4 10 0
6 4 0
6 3 0
3 9 6 0
4 3 6 9 0
3 0
6 0
3 9 0
4 10 6 0
4 10 3 0
4 0
3 9 4 0
6 0
4 0
4 10 0
4 10 6 0
3 9 6 0
4 10 3 6 0
4 10 3 0
6 0
3 9 4 0
6 0
6 3 0
4 3 6 9 0
3 9 0
3 0
6 4 0
4 10 6 0
3 9 0
4 10 3 0
4 10 0
6 3 0
6 4 0
3 0
3 9 4 0
6 0
4 10 3 6 0
3 9 6 0
6 0
4 0
4 3 6 9 0
3 0
4 0
6 0
13 0
13 0
13 0
13 1 0
13 -1 0
13 0
12 0
12 0
4 -9 -10 0
3 -9 -10 0
-4 3 -9 0
-3 4 -10 0
3 9 1 0
4 10 3 1 0
4 10 1 0
4 3 1 9 0
4 3 -1 9 0
4 10 -1 0
3 9 -1 0
4 10 3 -1 0
3 0
4 0
11 0
11 0
7 0
7 0
7 0
7 0
7 0
7 0
7 0
7 0
7 0
6 0
4 10 3 0
4 0
6 0
3 9 4 0
4 10 0
3 9 0
3 0
6 0
4 0
3 0
7 1 0
7 -1 0
7 0
13 1 0
12 13 1 0
12 1 0
13 12 1 0
12 -1 0
13 12 -1 0
13 -1 0
12 13 -1 0
13 0
12 0
11 0
11 0
15 0
15 0
15 0
15 0
15 0
15 0
15 0
15 0
15 0
15 0
15 0
15 0
15 0
15 0
15 0
15 0
15 0
15 0
15 0
15 0
15 0
15 0
12 13 1 0
13 12 1 0
13 1 0
12 1 0
13 -1 0
12 -1 0
12 13 -1 0
13 12 -1 0
13 0
12 0
11 1 0
11 -1 0
13 1 0
13 -1 0
13 0
12 0
12 0
12 0
12 0
7 11 1 0
7 11 -1 0
7 11 0
13 0
13 0
13 0
13 0
13 0
13 0
13 0
13 0
13 0
13 0
3 9 0
6 0
3 9 4 0
4 10 3 0
4 10 0
4 0
3 0
6 0
6 0
4 0
3 0
6 1 0
6 -1 0
6 0
4 10 3 6 0
6 4 0
2 0
4 10 0
3 9 0
4 3 6 9 0
4 10 3 0
6 3 0
4 10 6 0
2 8 0
3 9 6 0
6 0
3 9 4 0
2 0
4 10 3 0
3 9 6 0
6 0
2 8 0
3 9 0
4 3 6 9 0
4 10 3 6 0
6 3 0
6 4 0
4 10 0
3 9 4 0
4 10 6 0
6 3 0
3 9 4 0
4 10 0
4 10 3 0
6 4 0
3 9 6 0
4 10 3 6 0
2 8 0
4 10 6 0
6 0
3 9 0
4 3 6 9 0
2 0
4 10 3 0
2 0
3 9 0
4 10 6 0
6 0
3 9 4 0
4 10 0
4 10 3 6 0
6 4 0
6 3 0
3 9 6 0
2 8 0
4 3 6 9 0
11 0
15 13 0
11 0
15 0
13 0
13 15 0
11 0
11 0
13 0
11 0
11 0
11 0
11 0
15 0
11 0
13 15 0
13 0
15 13 0
11 0
13 0
11 0
11 0
11 0
13 0
15 0
13 0
11 0
11 0
11 0
13 0
13 0
11 0
15 0
11 0
15 13 0
13 15 0
11 0
11 0
15 0
11 0
11 0
13 0
13 0
11 0
7 0
7 0
7 0
7 0
7 0
7 0
7 0
7 0
7 0
7 0
-8 -16 -5 0
-14 -8 -16 0
-2 -16 -5 0
-2 -11 -16 -5 0
-14 -2 -16 0
-2 -16 -5 0
-2 -16 -5 0
-8 -16 -5 0
-14 -2 -16 0
-14 -8 -16 0
3 0
4 0
6 0
3 9 0
6 0
3 9 4 0
4 0
3 0
4 10 0
6 0
4 10 3 0
6 0
6 0
3 9 0
4 10 0
4 0
3 0
3 9 4 0
4 10 3 0
6 0
4 10 0
3 9 0
3 9 4 0
6 0
4 0
4 10 3 0
3 0
3 9 0
4 10 3 0
4 0
3 0
3 9 4 0
6 0
4 10 0
6 0
6 0
3 0
4 0
7 1 0
7 -1 0
7 0
15 1 0
15 -1 0
15 0
11 12 1 0
11 1 0
12 1 0
12 -1 0
11 -1 0
11 12 -1 0
11 0
12 0
7 1 0
7 -1 0
7 0
15 1 0
15 -1 0
15 0
4 0
4 10 3 0
6 0
6 0
3 0
3 9 0
4 10 0
3 9 4 0
4 0
6 0
3 0
15 0
13 0
13 0
13 0
15 0
15 0
15 0
13 0
15 0
13 0
15 0
13 0
15 0
13 0
15 0
13 0
13 0
15 0
15 0
13 0
3 0
4 0
3 9 0
4 10 3 0
4 0
4 10 0
3 9 4 0
3 0
3 0
4 10 3 0
4 10 0
4 0
3 9 0
3 9 4 0
3 0
4 0
4 10 0
3 9 0
3 9 4 0
4 10 3 0
4 0
3 9 4 0
4 10 0
3 9 0
4 10 3 0
3 0
3 0
4 0
11 0
11 0
7 0
7 0
7 0
7 0
7 0
7 0
7 0
7 0
7 0
13 1 0
13 -1 0
13 0
1 15 0
-1 15 0
15 0
15 0
15 0
15 0
15 0
15 0
15 0
15 0
15 0
1 15 0
-1 15 0
15 0
1 7 0
-1 7 0
7 0
15 0
15 0
15 0
15 0
15 0
15 0
15 0
11 0
11 0
11 0
11 0
11 0
11 0
11 0
11 0
11 0
11 0
11 0
11 0
11 0
11 0
11 0
11 0
11 0
11 0
11 0
11 0
11 0
11 0
11 0
11 0
11 0
11 0
11 0
11 0
11 0
11 0
11 0
11 0
11 0
-16 -1 -5 0
-16 -1 -14 0
7 0
15 0
15 0
7 0
15 0
15 7 0
7 0
15 0
7 0
15 0
7 0
15 7 0
15 0
7 0
7 0
15 7 0
15 0
7 0
15 0
15 7 0
7 0
15 0
7 0
15 0
7 0
7 0
13 0
13 0
1 11 0
-1 11 0
11 0
1 12 0
1 11 0
-1 12 0
-1 11 0
12 0
11 0
4 0
3 0
6 0
11 0
3 9 0
6 0
3 9 6 0
6 3 0
3 0
6 4 0
4 10 3 0
4 0
11 0
3 9 4 0
4 3 6 9 0
4 10 3 6 0
11 0
4 10 6 0
4 10 0
6 0
6 3 0
6 0
4 10 3 0
3 9 4 0
11 0
4 0
4 10 3 6 0
4 10 0
3 0
3 9 0
3 9 6 0
4 3 6 9 0
6 4 0
11 0
6 0
4 10 6 0
3 9 6 0
4 10 6 0
6 0
4 0
6 0
6 3 0
3 0
4 10 3 0
6 4 0
3 9 0
4 10 0
4 3 6 9 0
3 9 4 0
11 0
11 0
4 10 3 6 0
6 4 0
4 0
6 3 0
4 3 6 9 0
4 10 3 6 0
6 0
4 10 0
3 9 6 0
3 9 0
6 0
4 10 3 0
11 0
11 0
4 10 6 0
3 0
3 9 4 0
4 10 0
3 6 0
4 0
6 0
4 10 6 0
4 3 6 9 0
3 6 9 0
4 10 3 0
3 9 0
4 6 0
4 10 3 6 0
6 0
4 3 9 0
3 0
-1 0
3 0
4 10 0
4 10 3 0
6 0
4 0
6 0
3 9 4 0
3 9 0
4 0
6 0
3 0
7 0
7 0
7 0
7 0
7 0
7 0
7 0
7 0
7 0
15 0
15 0
15 -1 0
15 0
15 0
15 0
7 0
7 0
15 0
15 0
1 11 0
-1 11 0
11 0
1 11 0
-1 11 0
11 0
1 12 0
-1 12 0
12 0
15 0
15 0
15 0
15 0
7 0
7 0
7 0
7 0
7 0
7 0
7 0
7 0
7 0
7 0
15 1 0
15 -1 0
15 0
7 0
7 0
7 0
7 0
7 0
7 0
7 0
7 0
7 0
4 0
3 0
3 0
3 9 4 0
4 0
4 10 0
3 9 0
4 10 3 0
4 10 3 0
4 0
4 10 0
3 9 0
3 0
3 9 4 0
4 0
3 9 0
4 10 3 0
4 10 0
3 0
3 9 4 0
4 0
3 0
3 9 4 0
3 9 0
4 10 0
4 10 3 0
3 0
4 0
15 0
15 0
7 0
7 0
7 0
7 0
7 0
7 0
7 0
7 0
7 0
4 0
3 0
3 9 0
3 9 4 0
4 10 0
4 10 3 0
4 0
3 0
4 10 0
3 0
3 9 0
3 9 4 0
4 0
4 10 3 0
3 9 4 0
3 9 0
4 10 0
3 0
4 10 3 0
4 0
3 9 4 0
4 10 3 0
4 10 0
4 0
3 0
3 9 0
3 0
4 0
7 1 0
7 -1 0
7 0
1 12 0
-1 12 0
12 0
7 0
7 0
7 0
7 0
7 0
7 0
7 0
7 0
7 0
1 15 0
-1 15 0
15 0
12 1 0
13 12 1 0
12 13 1 0
13 1 0
12 13 -1 0
12 -1 0
13 12 -1 0
13 -1 0
13 0
12 0
15 1 0
15 -1 0
15 0
11 0
13 0
13 0
13 0
12 0
12 0
11 0
13 0
12 0
12 0
11 0
13 0
13 0
11 0
11 0
12 0
13 0
11 0
12 0
11 0
13 0
12 0
13 0
13 0
12 0
13 0
11 0
15 0
15 0
12 1 0
12 -1 0
12 0
12 0
12 0
12 0
12 0
12 0
12 0
12 0
12 0
12 0
15 0
15 0
2 0
3 0
4 0
6 0
6 4 0
3 9 4 0
4 10 6 0
2 8 0
6 0
4 10 3 6 0
3 9 0
4 10 0
4 3 6 9 0
3 9 6 0
6 3 0
4 10 3 0
-1 0
6 0
2 0
3 0
4 0
1 11 0
-1 11 0
11 0
15 1 0
15 -1 0
15 0
15 1 0
15 -1 0
15 0
15 0
15 0
15 0
15 0
15 0
15 0
15 0
15 0
15 0
15 0
15 0
15 0
15 0
15 0
15 0
15 0
15 0
7 0
7 0
12 0
12 0
2 0
2 8 0
2 8 0
2 0
2 0
2 8 0
2 8 0
2 0
7 1 0
7 -1 0
7 0
15 0
15 0
7 0
7 0
15 1 0
15 -1 0
15 0
13 0
13 0
13 0
13 0
13 0
13 0
13 0
13 0
13 0
13 0
12 0
11 0
11 0
12 0
11 0
11 0
12 0
12 0
11 0
12 0
11 0
12 0
12 0
12 0
11 0
11 0
11 0
12 0
4 0
4 10 0
4 10 3 0
3 9 0
3 0
3 9 4 0
4 10 0
3 9 0
3 9 4 0
3 0
4 0
4 10 3 0
4 10 0
3 9 0
3 9 4 0
3 0
4 0
4 10 3 0
7 0
13 0
13 0
7 0
7 0
13 0
13 0
13 0
13 0
7 0
13 0
7 0
13 0
13 0
7 0
13 0
7 0
7 0
13 0
13 0
12 1 0
12 -1 0
12 0
11 1 0
11 -1 0
11 0
7 0
7 0
7 0
7 0
7 0
7 0
7 0
7 0
7 0
1 12 0
-1 12 0
12 0
6 0
4 10 0
4 10 3 0
3 9 4 0
6 0
3 0
3 9 0
4 0
6 0
3 0
4 0
3 -9 -10 0
-4 3 -9 0
-3 4 -10 0
4 -9 -10 0
4 3 1 9 0
4 10 3 1 0
3 9 1 0
4 10 1 0
4 10 3 -1 0
4 10 -1 0
4 3 -1 9 0
3 9 -1 0
3 0
4 0
15 0
15 0
13 0
13 0
13 0
13 0
1 12 0
1 11 0
-1 12 0
-1 11 0
12 0
11 0
13 1 0
13 -1 0
13 0
1 15 0
-1 15 0
15 0
11 0
11 0
3 9 4 0
7 0
7 0
7 0
13 0
3 9 4 0
3 0
4 0
7 0
4 10 0
4 3 9 0
3 9 4 0
3 9 0
3 9 4 0
7 0
4 10 0
3 9 0
4 10 0
4 10 0
3 9 0
7 0
3 9 4 0
4 10 3 0
4 10 3 0
7 0
4 10 3 0
4 3 9 0
15 0
4 10 3 0
4 10 0
3 9 0
7 0
13 0
7 0
7 0
13 0
4 3 9 0
13 15 0
15 0
3 9 0
4 10 3 0
3 0
3 9 0
3 9 0
4 10 3 0
4 10 3 0
3 9 4 0
3 9 0
15 13 0
13 0
4 10 3 0
13 0
4 0
3 9 4 0
13 0
3 9 4 0
3 9 4 0
15 0
4 3 9 0
4 10 3 0
7 0
4 10 0
4 10 3 0
7 0
3 9 4 0
4 10 3 0
3 0
4 10 0
4 10 3 0
3 9 0
3 9 0
4 10 0
3 9 0
3 9 4 0
12 0
13 0
3 9 0
4 10 0
4 10 0
4 10 0
3 9 0
15 0
7 0
4 10 0
4 0
7 0
7 0
15 0
12 0
3 0
3 9 0
4 10 0
4 0
15 13 0
4 10 0
4 0
3 9 4 0
7 0
4 10 0
15 0
4 10 0
13 0
7 0
13 0
4 10 3 0
7 0
13 0
3 9 4 0
7 0
4 10 0
7 0
3 0
3 9 0
3 9 4 0
3 9 4 0
3 9 4 0
3 9 0
4 10 0
3 9 4 0
3 9 4 0
4 10 3 0
4 3 9 0
4 10 0
3 9 0
3 9 0
4 10 3 0
7 0
4 10 0
4 10 0
4 10 3 0
4 10 3 0
4 10 3 0
3 0
4 10 3 0
3 9 0
13 0
4 10 0
13 0
4 10 3 0
4 10 3 0
7 0
13 0
4 10 0
4 10 0
4 10 0
7 0
13 0
7 0
3 9 0
7 0
4 3 9 0
4 10 0
4 0
13 0
7 0
4 10 0
13 0
3 9 4 0
13 0
3 9 0
3 9 0
7 0
13 0
7 0
7 0
3 9 4 0
3 0
3 9 0
3 9 0
3 9 0
12 7 0
4 10 3 0
3 9 0
3 9 4 0
7 0
4 10 0
3 9 0
4 10 0
4 3 9 0
3 9 0
3 9 4 0
13 0
13 15 0
7 0
4 10 3 0
3 9 0
4 10 3 0
7 0
4 10 3 0
7 0
4 10 3 0
3 9 0
13 0
4 10 3 0
4 0
4 10 3 0
7 0
13 0
4 10 3 0
4 10 0
4 10 3 0
3 9 4 0
13 0
7 0
7 0
7 0
7 0
7 0
7 0
7 0
7 0
7 0
2 8 0
4 3 6 9 0
4 10 3 0
6 4 0
3 9 6 0
4 10 3 6 0
4 10 0
6 3 0
3 9 0
4 10 6 0
6 0
3 9 4 0
4 10 3 0
6 3 0
4 10 6 0
4 10 3 6 0
4 3 6 9 0
3 9 6 0
3 9 4 0
4 10 0
6 4 0
3 9 0
2 8 0
6 0
6 3 0
4 10 0
6 0
3 9 6 0
4 10 6 0
4 10 3 6 0
4 10 3 0
3 9 4 0
2 8 0
4 3 6 9 0
6 4 0
3 9 0
3 9 6 0
6 4 0
6 0
2 8 0
4 10 3 6 0
4 10 0
4 10 3 0
3 9 0
4 10 6 0
6 3 0
3 9 4 0
4 3 6 9 0
1 11 0
-1 11 0
11 0
1 11 0
-1 11 0
11 0
13 1 0
13 -1 0
13 0
1 12 0
1 11 0
-1 12 0
-1 11 0
12 0
11 0
15 1 0
15 -1 0
15 0
1 15 0
-1 15 0
15 0
4 -9 -10 0
3 -9 -10 0
-4 3 -9 0
-3 4 -10 0
4 3 1 9 0
4 10 3 1 0
4 10 1 0
3 9 1 0
3 9 -1 0
4 10 -1 0
4 3 -1 9 0
4 10 3 -1 0
3 0
4 0
15 0
15 0
15 0
7 1 0
7 -1 0
7 0
15 0
15 0
7 1 0
7 -1 0
7 0
15 0
15 0
15 0
15 0
15 0
15 0
15 0
15 0
15 0
15 0
15 0
15 0
15 0
15 0
15 0
15 0
15 0
1 7 0
-1 7 0
7 0
12 0
12 0
1 7 0
-1 7 0
7 0
15 0
15 0
1 15 0
-1 15 0
15 0
11 0
6 0
4 0
3 0
6 4 0
3 9 4 0
3 0
6 0
3 9 0
3 9 6 0
4 10 6 0
4 10 3 0
4 10 0
11 0
11 0
4 0
6 3 0
4 10 3 6 0
6 0
4 3 6 9 0
4 3 6 9 0
6 0
4 0
11 0
4 10 6 0
4 10 0
4 10 3 0
6 4 0
3 9 6 0
11 0
6 3 0
3 9 0
3 0
4 10 3 6 0
3 9 4 0
6 0
4 10 0
6 4 0
4 10 3 0
3 9 6 0
11 0
3 0
6 0
3 9 0
4 3 6 9 0
4 10 3 6 0
11 0
4 0
6 3 0
3 9 4 0
4 10 6 0
6 0
4 10 3 0
11 0
3 9 6 0
6 3 0
6 0
4 10 6 0
3 9 4 0
4 10 0
6 0
11 0
4 0
6 4 0
4 10 3 6 0
3 9 0
4 3 6 9 0
3 0
1 12 0
-1 12 0
12 0
7 0
7 0
11 0
5 0
11 0
5 0
5 14 0
11 0
11 0
11 0
11 0
11 0
5 0
5 14 0
11 0
11 0
11 0
5 14 0
11 0
11 0
11 0
5 0
11 0
5 0
5 14 0
11 0
11 0
11 0
-8 2 0
7 0
7 0
15 0
15 0
7 0
15 0
7 0
7 0
7 0
15 0
15 0
15 0
7 0
7 0
7 0
15 0
7 0
15 0
15 0
15 0
7 0
7 0
7 0
15 0
7 0
7 0
13 1 0
13 -1 0
13 0
1 12 0
-1 12 0
12 0
7 1 0
7 -1 0
7 0
15 1 0
15 -1 0
15 0
15 0
15 0
15 0
15 0
15 0
15 0
15 0
15 0
15 0
15 0
15 0
15 0
15 0
15 0
15 0
15 0
15 0
15 0
5 14 0
5 0
5 14 0
5 0
1 7 0
-1 7 0
7 0
12 1 0
12 -1 0
12 0
15 0
11 0
15 0
15 0
11 0
11 0
11 0
15 0
15 0
15 0
15 0
11 0
15 0
15 0
11 0
15 0
15 0
11 0
15 0
15 0
15 0
11 0
15 0
15 0
15 1 0
15 -1 0
15 0
15 0
15 0
12 0
12 0
12 0
12 0
12 0
12 0
12 0
12 0
12 0
12 0
12 0
12 1 0
11 12 1 0
11 1 0
11 12 -1 0
12 -1 0
11 -1 0
12 0
11 0
7 0
7 0
7 0
7 0
7 0
7 0
7 0
7 0
7 0
7 0
12 0
11 0
11 12 0
11 0
12 0
12 0
11 0
11 12 0
11 0
12 0
7 0
7 0
4 -9 -10 0
-4 3 -9 0
3 -9 -10 0
-3 4 -10 0
4 10 3 1 0
4 10 1 0
4 3 1 9 0
3 9 1 0
3 9 -1 0
4 10 -1 0
4 3 -1 9 0
4 10 3 -1 0
3 0
4 0
7 0
7 0
7 0
7 0
7 0
7 0
7 0
7 0
7 0
7 0
12 0
12 0
12 0
12 0
12 0
12 0
12 0
12 0
12 0
12 0
7 0
7 0
-14 -2 -16 0
-2 -11 -16 -5 0
-14 -8 -16 0
-2 -16 -5 0
-8 -16 -5 0
-2 -16 -5 0
-14 -8 -16 0
-14 -2 -16 0
-8 -16 -5 0
-2 -16 -5 0
13 0
13 12 0
12 13 0
12 0
12 0
13 0
12 0
13 0
12 0
13 0
13 12 0
12 13 0
12 0
12 13 0
13 12 0
13 0
13 0
12 0
12 0
13 0
13 12 0
12 13 0
12 0
13 0
13 0
12 0
4 -9 -10 0
3 -9 -10 0
-3 4 -10 0
-4 3 -9 0
3 9 0
4 10 0
4 0
4 10 3 0
3 9 4 0
3 0
3 9 0
3 0
3 9 4 0
4 0
4 10 3 0
4 10 0
3 9 4 0
4 10 0
4 0
3 0
4 10 3 0
3 9 0
4 10 3 0
4 0
3 9 0
3 9 4 0
3 0
4 10 0
3 0
4 0
1 7 0
-1 7 0
7 0
11 0
11 0
11 0
11 0
11 0
11 0
11 0
11 0
11 0
5 0
11 0
11 0
5 14 0
5 0
11 0
5 14 0
11 0
11 0
5 0
11 0
11 0
11 0
5 0
11 0
5 14 0
5 14 0
5 0
11 0
11 0
11 0
11 0
5 0
1 11 0
-1 11 0
11 0
1 15 0
-1 15 0
15 0
13 1 0
13 -1 0
13 0
15 0
15 0
15 0
15 -1 0
15 0
13 0
13 0
13 0
13 0
13 0
13 0
13 0
13 0
13 0
13 0
1 11 0
-1 11 0
11 0
7 0
7 0
7 0
7 0
7 0
7 0
7 0
7 0
7 0
4 10 0
4 10 3 0
6 0
3 9 4 0
3 9 0
3 0
6 0
4 0
11 0
3 0
6 0
4 0
6 3 0
6 4 0
6 0
3 0
4 3 6 9 0
4 10 3 0
6 0
3 9 0
4 10 6 0
4 10 0
4 10 3 6 0
3 9 6 0
11 0
4 0
11 0
3 9 4 0
6 4 0
6 0
4 10 3 6 0
4 3 6 9 0
3 0
4 10 0
4 0
4 10 6 0
4 10 3 0
6 3 0
11 0
6 0
11 0
3 9 4 0
3 9 0
3 9 6 0
4 10 3 0
6 4 0
4 3 6 9 0
4 0
4 10 6 0
6 0
11 0
6 3 0
3 9 6 0
3 9 4 0
11 0
6 0
3 9 0
4 10 3 6 0
4 10 0
3 0
11 0
4 10 3 0
6 0
4 10 3 6 0
6 3 0
4 10 0
3 9 4 0
6 0
3 9 0
4 0
4 10 6 0
3 0
11 0
4 3 6 9 0
3 9 6 0
6 4 0
3 0
3 9 0
3 0
3 9 0
1 11 0
-1 11 0
11 0
1 11 0
-1 11 0
11 0
13 1 0
13 -1 0
13 0
12 0
11 0
12 0
11 0
1 11 0
-1 11 0
11 0
1 12 0
-1 12 0
12 0
-14 -13 -16 0
-13 -2 -16 -5 0
-13 -16 -5 0
5 0
13 0
13 0
5 0
5 0
13 0
5 13 0
13 0
5 13 14 0
5 14 0
5 13 14 0
13 0
5 0
5 13 0
5 14 0
13 0
5 0
13 0
5 0
5 13 14 0
13 0
5 0
13 0
5 14 0
13 0
5 13 0
13 0
5 13 0
5 0
13 0
13 0
5 13 14 0
5 14 0
5 0
13 0
5 0
1 7 0
-1 7 0
7 0
7 0
7 0
7 0
1 15 0
-1 15 0
15 0
11 0
11 0
1 12 0
-1 12 0
12 0
-3 4 -10 0
3 -9 -10 0
-4 3 -9 0
4 -9 -10 0
4 3 1 9 0
3 9 1 0
4 10 3 1 0
4 10 1 0
4 3 -1 9 0
4 10 3 -1 0
4 10 -1 0
3 9 -1 0
3 0
4 0
3 0
4 0
6 0
6 1 0
4 10 3 1 0
4 6 1 0
4 10 6 1 0
4 10 1 0
4 3 1 9 0
3 6 1 9 0
3 6 1 0
3 9 1 0
4 10 3 6 1 0
4 3 6 1 9 0
4 10 3 -1 0
6 -1 0
4 6 -1 0
4 10 -1 0
4 3 6 -1 9 0
3 9 -1 0
3 6 -1 9 0
4 10 6 -1 0
4 3 -1 9 0
3 6 -1 0
4 10 3 6 -1 0
3 0
4 0
6 0
3 0
2 0
4 0
6 0
4 0
6 0
3 0
2 0
-1 0
2 0
3 0
4 0
6 0
12 0
12 0
7 1 0
7 -1 0
7 0
12 0
12 0
12 0
12 0
12 0
12 0
12 0
13 0
13 0
13 0
13 0
13 0
13 0
13 0
13 0
13 0
13 0
4 10 3 0
6 3 0
6 0
6 4 0
3 9 4 0
4 0
3 9 6 0
3 9 0
6 0
4 3 6 9 0
4 10 0
4 10 6 0
4 10 3 6 0
3 0
4 0
3 0
6 0
1 11 0
-1 11 0
11 0
2 0
2 0
2 8 0
5 0
5 14 0
5 0
2 8 0
2 0
5 14 0
2 0
5 14 0
2 0
2 0
2 8 0
5 0
2 0
2 8 0
5 14 0
-14 -8 -16 0
-8 -16 -5 0
-2 -16 -5 0
-14 -2 -16 0
-2 -16 -5 0
-2 -11 -16 -5 0
-8 -16 -5 0
-14 -8 -16 0
-2 -16 -5 0
-14 -2 -16 0
12 1 0
12 1 0
2 8 12 1 0
12 -1 0
12 2 -1 0
12 -1 0
12 0
12 0
12 2 0
12 0
12 0
12 0
12 0
12 0
12 0
12 0
12 0
12 0
12 0
11 0
11 0
11 0
11 0
11 0
11 0
11 0
11 0
11 0
11 0
11 0
11 0
11 0
15 0
15 0
7 0
12 0
7 0
7 0
7 0
12 0
7 0
12 0
7 0
7 0
7 0
12 0
-14 -8 -16 0
-8 -16 -5 0
-2 -16 -5 0
-2 -11 -16 -5 0
-14 -2 -16 0
-2 -16 -5 0
-2 -16 -5 0
-14 -8 -16 0
-14 -2 -16 0
-8 -16 -5 0
11 0
11 0
11 0
11 0
11 0
11 0
11 0
11 0
11 0
7 1 0
7 -1 0
7 0
1 7 0
-1 7 0
7 0
15 0
15 0
11 0
4 0
6 0
3 0
3 0
11 0
11 0
3 6 0
4 0
4 3 6 9 0
4 10 3 6 0
4 0
3 6 9 0
4 6 0
6 0
3 0
4 10 0
4 10 3 0
3 9 0
6 0
4 10 6 0
6 0
4 3 9 0
11 0
6 0
11 0
3 0
4 10 3 0
4 0
6 0
4 3 9 0
3 0
11 0
3 6 9 0
4 10 3 6 0
4 6 0
4 10 0
4 3 6 9 0
3 9 0
6 0
11 0
4 10 6 0
4 0
3 6 0
4 3 6 9 0
4 10 3 0
4 10 0
4 10 6 0
4 0
3 0
6 0
4 3 9 0
3 6 0
4 10 3 6 0
11 0
4 0
3 0
6 0
3 9 0
11 0
11 0
3 6 9 0
6 0
4 6 0
3 0
4 10 3 6 0
4 0
4 3 6 9 0
11 0
4 0
11 0
3 9 0
4 10 0
4 10 3 0
6 0
3 6 0
3 0
4 3 9 0
3 6 9 0
6 0
4 6 0
6 0
11 0
4 10 6 0
15 0
15 0
15 0
15 0
15 0
15 0
12 0
12 0
12 0
12 0
12 0
12 0
12 0
12 0
12 0
12 0
12 0
12 0
12 0
6 0
4 0
4 10 3 0
3 9 4 0
3 9 0
3 0
6 0
4 10 0
11 0
11 0
11 0
11 0
13 0
13 0
13 0
13 0
4 10 0
4 10 3 0
3 0
3 9 4 0
3 9 0
4 0
3 9 0
3 0
4 0
3 9 0
4 0
4 10 3 0
3 0
3 9 4 0
4 10 0
4 10 0
4 10 0
3 9 4 0
3 9 0
4 10 3 0
3 0
6 0
4 0
6 4 0
4 3 6 9 0
3 9 0
3 0
4 10 3 6 0
6 0
4 10 0
4 0
4 10 6 0
3 9 4 0
6 3 0
3 9 6 0
4 10 3 0
6 0
6 3 0
4 3 6 9 0
4 10 3 6 0
4 10 3 0
6 0
3 0
3 9 0
6 0
4 0
4 10 0
3 9 6 0
6 4 0
4 10 6 0
3 9 4 0
3 9 4 0
4 0
6 3 0
6 0
4 10 0
4 3 6 9 0
4 10 6 0
6 0
3 9 0
3 9 6 0
4 10 3 0
6 4 0
3 0
4 10 3 6 0
4 3 6 9 0
3 9 6 0
6 4 0
4 10 3 0
3 0
4 10 0
6 0
6 0
3 9 4 0
4 10 3 6 0
4 10 6 0
3 9 0
6 3 0
4 0
4 0
3 0
6 0
11 0
11 0
7 0
7 0
7 0
7 0
15 0
15 0
5 14 0
5 14 0
15 0
15 0
15 0
15 0
15 0
15 0
15 0
15 0
15 0
15 0
15 0
15 0
15 0
15 0
15 0
15 0
7 0
7 0
7 0
7 0
12 0
12 0
12 0
5 13 14 0
13 0
5 14 0
5 14 0
5 14 0
5 0
5 13 14 0
13 0
5 0
3 9 0
13 0
5 0
13 0
13 0
5 13 14 0
5 13 14 0
5 13 0
5 13 0
5 13 0
13 0
5 0
13 0
5 0
13 0
5 0
13 0
5 13 0
5 0
13 0
11 5 0
13 0
5 14 0
13 0
5 14 0
11 0
11 0
5 0
3 0
5 11 14 0
5 0
5 13 14 0
5 11 14 0
5 14 0
5 0
5 0
5 14 0
13 0
3 0
13 0
13 0
5 0
11 0
5 13 0
5 14 0
13 0
13 0
11 5 0
13 0
13 0
5 14 0
13 0
13 0
13 0
5 0
5 0
13 0
13 0
5 13 14 0
5 14 0
5 13 14 0
5 13 0
5 13 0
5 0
5 0
11 0
5 0
5 13 14 0
5 0
5 13 0
3 9 0
13 0
13 0
3 0
5 0
11 0
5 0
5 0
13 0
5 0
13 0
5 0
3 9 0
5 0
5 14 0
3 0
5 13 14 0
11 5 0
5 13 0
5 0
5 14 0
13 0
5 14 0
5 0
13 0
13 0
5 13 0
13 0
5 13 0
13 0
5 11 14 0
13 0
5 13 14 0
5 0
5 0
13 0
5 13 14 0
5 13 14 0
13 0
11 0
5 0
5 14 0
13 0
13 0
5 14 0
13 0
11 0
5 0
5 0
5 13 0
13 0
5 0
13 0
13 0
3 0
13 0
13 0
5 0
11 0
5 0
5 0
5 0
5 0
7 0
7 0
7 0
7 0
7 0
7 0
7 0
7 0
7 0
12 0
15 0
15 0
12 0
12 0
15 0
12 0
15 0
15 0
12 0
12 0
15 0
15 0
12 0
12 0
15 0
15 0
12 0
11 0
11 0
11 0
11 0
11 0
11 0
11 0
11 0
11 0
12 1 0
12 1 0
12 -1 0
12 -1 0
3 0
4 0
3 0
4 10 3 0
4 0
4 10 0
3 9 0
3 9 4 0
3 0
3 9 4 0
4 0
4 10 3 0
4 10 0
3 9 0
4 10 0
3 0
4 10 3 0
4 0
3 9 4 0
3 9 0
3 0
3 9 4 0
4 0
4 10 0
4 10 3 0
3 9 0
3 0
4 0
1 7 0
-1 7 0
7 0
15 0
15 0
15 0
6 0
3 0
4 0
2 0
6 0
3 9 6 0
4 3 6 9 0
4 10 3 0
2 8 0
6 3 0
4 10 3 6 0
4 10 6 0
3 9 4 0
3 9 0
4 10 0
6 4 0
-1 0
4 0
3 0
6 0
2 0
1 7 0
-1 7 0
7 0
5 -14 -16 0
-5 -16 0
7 0
7 0
7 0
7 0
7 0
7 0
7 0
7 0
7 0
7 0
7 0
7 0
7 0
7 0
4 0
3 0
6 0
6 0
4 10 0
4 10 3 0
3 9 4 0
4 0
6 3 0
3 0
3 9 0
4 3 6 9 0
3 9 6 0
6 4 0
4 10 3 6 0
6 0
4 10 6 0
6 0
3 9 4 0
6 0
4 10 0
3 0
4 10 6 0
4 10 3 0
6 3 0
4 3 6 9 0
4 0
6 4 0
3 9 0
3 9 6 0
4 10 3 6 0
4 3 6 9 0
3 9 0
6 0
3 9 4 0
6 3 0
4 10 0
4 10 6 0
3 0
6 4 0
4 10 3 6 0
4 0
3 9 6 0
6 0
4 10 3 0
6 4 0
4 10 3 6 0
4 10 0
6 0
6 3 0
4 10 3 0
3 0
3 9 4 0
6 0
4 3 6 9 0
3 9 0
3 9 6 0
4 10 6 0
4 0
6 0
3 0
4 0
1 15 0
-1 15 0
15 0
12 0
12 0
15 0
15 0
15 0
15 0
15 0
15 0
15 0
15 0
15 0
15 0
15 0
15 0
15 0
15 0
15 0
15 0
15 0
15 0
12 0
12 0
12 0
12 0
12 0
12 0
12 0
12 0
12 0
5 -14 -11 0
11 1 0
5 11 14 1 0
5 14 1 0
11 5 1 0
5 11 14 -1 0
11 -1 0
11 5 -1 0
5 14 -1 0
5 0
11 0
15 0
11 0
11 0
15 0
12 0
12 0
11 0
11 0
15 0
13 0
15 0
11 0
11 0
12 0
11 0
11 0
15 0
15 0
12 0
13 0
13 0
11 0
15 0
15 0
12 0
15 0
11 0
15 0
12 0
15 0
11 0
11 0
13 0
15 0
12 0
11 0
11 0
15 0
13 0
11 0
15 0
15 0
11 0
12 0
13 1 0
13 -1 0
13 0
15 0
15 0
15 0
15 0
3 9 0
3 9 4 0
4 10 0
3 0
6 0
6 0
4 0
4 10 3 0
4 0
6 0
3 0
3 -9 -10 0
-4 3 -9 0
4 -9 -10 0
-3 4 -10 0
4 3 1 9 0
4 10 3 1 0
3 9 1 0
4 10 1 0
4 10 3 -1 0
4 10 -1 0
3 9 -1 0
4 3 -1 9 0
3 0
4 0
12 0
12 0
12 0
12 0
12 0
12 0
12 0
12 0
12 0
15 0
7 0
7 0
15 0
15 0
7 0
15 0
7 0
15 0
15 0
7 0
15 0
15 0
15 0
7 0
15 0
7 0
15 0
15 0
7 0
7 0
15 0
7 0
15 0
12 1 0
12 -1 0
12 0
2 0
2 8 0
7 0
7 2 0
7 0
5 14 0
7 0
7 2 0
7 0
5 14 0
2 0
2 8 0
7 0
2 8 0
7 2 0
7 0
5 14 0
2 0
5 14 0
7 2 0
2 0
7 0
2 8 0
7 0
1 12 0
1 11 0
-1 12 0
-1 11 0
12 0
11 0
7 0
7 0
7 0
7 0
7 0
7 0
7 0
7 0
7 0
1 7 0
1 12 0
-1 7 0
-1 12 0
7 0
12 0
11 0
11 0
7 0
12 0
12 0
12 0
7 0
7 0
7 0
7 0
12 0
12 0
12 0
7 0
7 0
12 0
7 0
12 0
12 0
7 0
12 0
7 0
12 1 0
11 12 1 0
11 1 0
12 -1 0
11 12 -1 0
11 -1 0
12 0
11 0
7 0
7 0
7 0
7 0
7 0
7 0
7 0
7 0
7 0
7 0
7 0
7 0
7 0
7 0
7 0
7 0
7 0
7 0
7 0
7 0
7 0
7 0
7 0
4 0
3 0
4 10 0
3 9 0
3 0
3 9 4 0
4 10 3 0
4 0
4 0
3 0
4 10 3 0
3 9 4 0
4 10 0
3 9 0
4 0
3 9 0
4 10 0
3 0
3 9 4 0
4 10 3 0
4 10 3 0
4 10 0
3 0
4 0
3 9 0
3 9 4 0
4 0
3 0
15 1 0
15 -1 0
15 0
7 0
7 0
7 0
7 0
7 0
7 0
7 0
7 0
7 0
13 0
5 14 13 0
5 14 0
13 5 0
13 0
5 14 13 0
5 14 0
13 5 0
12 0
12 0
12 0
12 0
12 0
12 0
6 0
4 0
3 0
6 3 0
4 10 3 6 0
4 0
4 3 6 9 0
3 9 0
6 0
4 10 0
3 0
3 9 4 0
4 10 6 0
4 10 3 0
3 9 6 0
6 4 0
6 0
6 0
3 9 4 0
3 9 0
3 9 6 0
6 4 0
6 3 0
4 10 3 6 0
3 0
6 0
4 10 6 0
4 3 6 9 0
4 10 3 0
4 10 0
4 0
3 9 4 0
3 9 0
6 0
4 10 0
4 10 3 6 0
6 3 0
4 10 6 0
3 9 6 0
6 0
4 0
4 10 3 0
4 3 6 9 0
6 4 0
3 0
6 4 0
4 3 6 9 0
3 9 6 0
4 10 0
4 10 3 0
6 3 0
3 9 0
3 0
4 10 3 6 0
4 10 6 0
3 9 4 0
6 0
6 0
4 0
3 0
4 0
6 0
1 11 0
-1 11 0
11 0
13 1 0
13 -1 0
13 0
2 -8 0
2 -8 0
12 1 0
12 -1 0
12 0
1 15 0
-1 15 0
15 0
7 1 0
7 -1 0
7 0
1 15 0
-1 15 0
15 0
13 1 0
13 -1 0
13 0
13 1 0
13 -1 0
13 0
12 0
12 0
12 0
12 0
15 0
15 0
6 0
4 0
3 0
6 0
4 10 0
3 9 0
6 3 0
4 3 6 9 0
3 9 6 0
3 9 4 0
3 0
4 0
4 10 3 6 0
4 10 6 0
6 4 0
6 0
4 10 3 0
4 10 3 6 0
4 3 6 9 0
3 0
4 10 3 0
3 9 4 0
3 9 0
6 0
6 4 0
4 0
6 3 0
4 10 0
6 0
3 9 6 0
4 10 6 0
4 10 3 6 0
4 10 3 0
3 0
6 4 0
4 10 6 0
6 0
3 9 6 0
6 3 0
4 10 0
3 9 0
3 9 4 0
4 3 6 9 0
4 0
6 0
4 10 3 6 0
6 0
6 3 0
4 10 3 0
4 10 0
3 0
3 9 0
4 3 6 9 0
4 0
3 9 6 0
3 9 4 0
4 10 6 0
6 0
6 4 0
3 0
4 0
6 0
1 7 0
-1 7 0
7 0
3 9 0
3 9 4 0
4 10 3 0
4 10 0
3 9 0
3 9 4 0
4 10 3 0
4 10 0
7 0
7 0
7 0
7 0
7 0
7 0
7 0
7 0
7 0
13 0
13 0
13 0
13 0
13 0
13 0
13 1 0
13 -1 0
13 0
1 15 0
-1 15 0
15 0
15 1 0
15 -1 0
15 0
12 1 0
12 -1 0
12 0
13 1 0
13 -1 0
13 0
-14 -16 0
-16 -5 0
13 0
5 0
5 0
13 0
13 0
5 13 14 0
5 0
5 14 0
5 13 0
13 0
13 0
5 13 0
13 0
5 14 0
5 0
5 0
13 0
5 13 14 0
13 0
5 0
5 14 0
5 13 14 0
5 13 0
13 0
5 0
13 0
5 0
5 0
13 0
13 0
5 13 14 0
5 14 0
5 13 0
13 0
13 0
5 0
1 12 0
1 11 0
-1 12 0
-1 11 0
12 0
11 0
-4 3 -9 0
-3 4 -10 0
3 -9 -10 0
4 -9 -10 0
3 9 1 0
4 10 1 0
4 3 1 9 0
4 10 3 1 0
4 3 -1 9 0
4 10 -1 0
4 10 3 -1 0
3 9 -1 0
3 0
4 0
7 1 0
7 -1 0
7 0
12 0
12 0
1 12 0
-1 12 0
12 0
11 0
7 0
12 0
7 0
12 0
11 0
11 12 0
7 0
7 0
7 0
7 0
7 0
11 0
7 0
11 0
7 0
12 0
12 0
7 0
11 12 0
7 0
7 0
7 0
11 0
7 0
12 0
7 0
7 0
11 12 0
11 0
12 0
12 0
7 0
7 0
11 0
7 0
7 0
7 0
12 0
7 0
11 0
7 0
11 0
4 0
13 0
3 9 0
4 0
4 3 9 0
13 0
3 0
4 10 3 0
4 10 0
3 0
13 0
4 0
13 0
3 9 0
4 0
4 3 9 0
13 0
3 0
4 10 3 0
4 10 0
3 0
13 0
15 0
15 0
15 0
11 0
11 0
12 0
12 0
1 7 0
-1 7 0
7 0
11 0
11 0
12 0
12 0
11 0
11 0
12 0
12 0
11 0
12 0
11 0
12 0
11 0
11 0
12 0
12 0
11 0
12 0
7 0
7 0
1 15 0
-1 15 0
15 0
-14 -13 -2 -16 0
-14 -13 -8 -16 0
-13 -8 -16 -5 0
-13 -2 -16 -5 0
7 1 0
7 -1 0
7 0
7 0
7 0
7 0
7 0
7 0
7 0
7 0
7 0
7 0
7 0
7 0
7 0
7 0
12 0
12 0
12 0
7 0
7 0
12 0
12 0
7 0
12 0
7 0
12 0
12 0
7 0
7 0
7 0
7 0
12 0
12 0
7 0
7 0
12 0
12 0
7 0
12 0
12 0
7 0
12 0
7 0
4 0
4 10 0
3 9 4 0
3 9 0
4 10 3 0
4 0
4 3 9 0
4 10 3 0
3 9 0
4 10 0
3 9 0
4 10 0
3 9 4 0
3 0
4 10 0
4 3 9 0
4 0
4 10 3 0
3 9 0
4 10 3 0
4 10 3 0
4 10 3 0
4 10 0
3 9 0
3 9 4 0
4 10 3 0
4 3 9 0
3 9 0
4 10 3 0
4 10 3 0
3 9 0
4 10 3 0
3 9 0
4 10 0
4 0
3 0
3 9 0
3 0
4 10 3 0
4 10 3 0
3 9 4 0
4 0
4 3 9 0
3 9 0
4 10 3 0
3 9 0
3 9 0
3 9 0
4 0
3 9 0
3 9 0
4 10 3 0
4 10 0
4 10 3 0
4 10 0
3 9 0
4 10 0
4 3 9 0
4 10 0
4 10 3 0
4 10 0
4 3 9 0
3 0
3 0
4 10 0
3 9 0
4 0
4 10 3 0
3 9 0
4 10 0
3 9 0
3 9 0
4 3 9 0
4 10 0
4 10 3 0
3 0
4 10 0
4 3 9 0
3 9 4 0
3 9 4 0
3 0
3 9 0
4 10 3 0
3 9 4 0
3 9 0
4 10 0
3 9 4 0
4 10 0
4 10 0
4 10 3 0
4 10 3 0
4 10 0
3 9 4 0
4 10 0
4 10 3 0
4 10 3 0
3 9 0
4 10 0
3 0
3 0
3 9 4 0
4 10 0
4 10 0
3 9 4 0
3 9 0
4 10 0
4 0
4 3 9 0
4 10 0
4 10 0
4 10 0
4 10 3 0
3 9 0
4 10 0
3 9 4 0
3 9 0
3 9 4 0
4 10 0
4 3 9 0
4 10 0
3 9 4 0
4 0
4 0
4 0
3 0
3 9 0
3 9 0
3 9 0
4 10 0
4 10 3 0
4 10 0
3 9 0
3 9 0
4 10 0
3 9 4 0
3 9 0
4 10 3 0
4 10 3 0
3 9 4 0
4 10 0
4 10 0
4 3 9 0
4 10 0
3 0
4 10 0
4 10 3 0
4 10 3 0
3 9 0
3 0
4 10 3 0
4 10 3 0
3 9 4 0
3 9 4 0
3 9 4 0
4 10 3 0
4 3 9 0
4 10 3 0
3 0
3 9 0
3 9 4 0
4 10 0
3 9 4 0
3 9 4 0
4 10 3 0
3 9 4 0
3 9 4 0
3 9 4 0
4 10 3 0
4 3 9 0
3 9 0
3 9 0
3 9 0
3 9 0
4 10 0
4 10 0
4 10 3 0
4 10 3 0
3 9 4 0
4 10 0
4 10 3 0
3 9 0
3 0
3 9 0
4 10 3 0
3 9 0
3 0
4 10 3 0
4 10 3 0
3 9 4 0
4 0
3 9 0
4 10 3 0
4 3 9 0
4 10 0
4 0
4 0
4 3 9 0
3 9 0
4 10 3 0
4 10 0
4 0
3 9 4 0
3 9 0
3 9 0
3 9 0
3 9 0
4 10 0
4 10 3 0
4 10 0
3 9 0
4 0
3 9 4 0
3 9 0
4 10 3 0
3 9 4 0
3 9 4 0
4 10 0
3 0
4 10 3 0
3 0
3 9 0
3 9 0
3 9 4 0
4 10 0
3 9 0
3 9 0
4 10 3 0
4 10 3 0
4 10 0
4 10 0
3 0
4 10 0
4 10 3 0
4 0
4 10 0
4 0
3 9 0
4 10 3 0
4 10 0
3 0
4 10 3 0
4 10 0
4 10 3 0
4 3 9 0
4 10 0
4 10 3 0
4 3 9 0
3 9 4 0
3 9 0
4 10 0
3 9 4 0
4 10 0
3 9 4 0
3 0
4 10 3 0
3 9 4 0
3 9 0
3 9 0
4 10 3 0
3 9 4 0
3 9 0
4 3 9 0
3 9 4 0
4 10 3 0
3 9 4 0
4 10 3 0
3 9 4 0
3 9 4 0
4 10 3 0
3 9 0
3 9 0
4 10 0
4 10 0
4 0
3 9 4 0
3 9 0
3 9 0
4 10 3 0
3 0
4 10 0
3 9 0
4 3 9 0
3 9 0
4 10 3 0
4 10 3 0
3 9 0
3 9 0
3 9 0
3 0
3 9 0
4 10 3 0
4 10 0
4 3 9 0
3 9 0
3 9 4 0
4 0
4 10 0
4 0
3 9 4 0
3 9 4 0
4 0
4 3 9 0
4 3 9 0
4 3 9 0
4 0
4 10 0
4 3 9 0
4 10 3 0
3 9 0
4 0
4 10 0
4 10 0
3 9 4 0
4 10 0
4 3 9 0
4 10 3 0
3 9 4 0
4 10 0
4 10 0
3 9 0
3 9 4 0
4 10 3 0
3 9 4 0
4 10 0
4 10 0
4 0
4 10 3 0
3 9 0
4 10 0
4 3 9 0
4 10 3 0
3 9 0
4 10 3 0
3 0
4 10 3 0
4 10 0
4 10 0
4 10 3 0
3 0
3 9 4 0
4 10 0
4 10 3 0
4 10 0
4 10 3 0
4 10 0
4 10 3 0
4 10 3 0
4 10 0
3 0
3 9 0
4 10 3 0
4 0
3 9 4 0
4 3 9 0
4 0
4 0
4 10 3 0
4 10 3 0
3 9 0
3 9 0
4 10 3 0
3 9 0
3 9 0
3 9 4 0
3 9 4 0
3 9 0
4 10 0
4 10 3 0
4 10 3 0
3 0
4 3 9 0
3 0
3 9 0
4 3 9 0
4 10 3 0
4 10 3 0
4 10 0
3 9 0
4 0
3 9 4 0
4 10 3 0
4 10 0
4 10 0
4 10 0
4 10 3 0
3 0
4 10 0
3 9 0
3 0
4 10 0
4 10 0
3 9 0
4 0
3 9 4 0
3 9 0
4 10 3 0
3 9 0
4 10 0
3 9 0
4 10 3 0
4 3 9 0
3 0
3 9 4 0
4 10 0
4 0
4 0
4 0
3 0
3 0
3 0
3 0
4 0
4 0
3 0
4 0
4 0
3 0
3 0
3 0
3 0
4 0
4 0
3 0
4 0
4 0
3 0
3 0
3 0
3 0
4 0
4 0
4 0
4 0
3 0
4 0
3 0
3 0
3 0
3 0
3 0
3 0
4 0
3 0
4 0
4 0
3 0
4 0
4 0
4 0
3 0
3 0
3 0
4 0
4 0
4 0
3 0
3 0
3 0
3 0
4 0
4 0
3 0
4 0
4 0
4 0
3 0
4 0
4 0
3 0
3 0
4 0
3 0
3 0
4 0
4 0
4 0
4 0
3 0
3 0
3 0
4 0
3 0
3 0
4 0
4 0
4 0
3 0
4 0
3 0
4 0
4 10 3 0
4 3 9 0
3 0
4 3 9 0
4 10 0
4 10 3 0
3 9 4 0
4 3 9 0
3 9 0
4 10 0
3 9 4 0
3 9 0
3 9 0
4 10 0
4 3 9 0
4 10 3 0
3 9 0
3 9 4 0
4 10 3 0
3 9 0
3 9 0
3 9 4 0
4 10 0
4 10 0
4 0
4 10 0
4 3 9 0
4 10 3 0
3 9 4 0
3 9 4 0
4 10 3 0
4 10 0
3 9 0
4 10 0
3 9 4 0
3 9 0
3 9 0
3 0
4 10 3 0
4 10 0
3 9 0
3 9 0
3 9 0
3 9 4 0
4 10 3 0
4 10 0
4 10 3 0
4 10 0
4 10 3 0
4 10 0
3 9 4 0
4 10 0
4 10 3 0
4 0
4 10 3 0
3 9 0
3 9 4 0
4 0
4 10 0
3 0
3 9 0
4 3 9 0
4 10 3 0
3 9 0
3 9 0
3 9 0
4 0
3 9 0
4 10 0
3 9 0
4 10 3 0
4 0
3 0
3 0
3 9 4 0
3 9 4 0
3 9 0
4 10 3 0
4 0
3 9 0
3 9 4 0
3 9 4 0
3 9 0
4 3 9 0
3 9 4 0
4 10 3 0
3 9 4 0
4 3 9 0
4 10 3 0
4 10 0
3 9 4 0
3 9 4 0
4 10 0
4 10 3 0
4 10 3 0
3 9 4 0
3 9 0
4 10 0
4 3 9 0
4 10 0
4 10 3 0
4 10 0
4 0
4 10 0
4 10 3 0
4 10 3 0
4 0
3 9 4 0
3 9 0
3 0
3 9 4 0
4 10 0
4 3 9 0
4 10 3 0
4 10 0
4 10 0
4 10 3 0
3 9 0
4 10 3 0
3 9 0
4 10 0
3 9 4 0
4 0
3 9 0
3 9 4 0
3 9 0
4 10 3 0
3 0
3 0
4 3 9 0
4 10 3 0
4 10 0
4 10 0
4 10 3 0
3 9 0
3 9 0
3 0
4 10 0
4 3 9 0
3 9 0
3 9 0
3 0
3 9 4 0
4 10 3 0
4 0
3 9 0
3 0
3 9 0
4 10 0
4 10 0
3 9 0
3 9 0
3 9 4 0
4 10 0
4 10 3 0
4 10 0
4 0
3 0
4 3 9 0
3 9 4 0
3 9 0
4 10 0
3 9 0
4 10 3 0
4 10 3 0
4 10 0
3 0
4 3 9 0
3 0
3 9 0
4 0
4 0
3 9 0
4 10 3 0
3 9 4 0
4 10 0
3 0
4 10 3 0
4 10 0
4 10 3 0
4 10 0
4 10 0
3 9 0
3 0
4 10 0
3 9 0
3 9 4 0
4 10 3 0
4 10 3 0
4 10 0
4 10 3 0
4 10 3 0
4 10 0
4 10 0
4 0
4 3 9 0
4 10 3 0
4 10 3 0
4 10 3 0
4 0
4 10 0
3 9 0
4 10 3 0
3 9 0
4 0
4 10 0
3 0
3 0
4 0
3 0
3 0
3 0
3 0
4 0
4 0
3 0
3 0
4 0
4 0
3 0
4 0
4 0
4 0
3 0
4 0
4 0
3 0
3 0
3 0
3 0
3 0
3 0
4 0
4 0
4 0
3 0
4 0
3 0
3 0
4 0
4 0
3 0
3 0
3 0
3 0
4 0
4 0
3 0
4 0
4 0
4 0
4 0
3 0
3 0
4 0
3 0
3 0
4 0
3 0
3 0
4 0
4 0
3 0
3 0
4 0
4 0
4 0
4 0
3 0
3 0
4 0
3 0
4 0
3 0
4 0
3 0
3 0
4 0
3 0
4 0
4 0
3 0
4 0
3 0
4 0
4 0
4 0
4 0
3 0
4 0
4 0
3 0
4 0
3 0
7 0
7 0
7 0
7 0
7 0
7 0
7 0
7 0
7 0
11 0
11 0
4 10 3 0
3 9 0
3 0
4 0
4 10 0
3 9 4 0
4 10 3 0
3 9 0
3 0
4 0
4 10 0
3 9 4 0
1 7 0
-1 7 0
7 0
15 1 0
15 -1 0
15 0
11 0
11 0
12 0
11 0
11 0
12 0
11 0
12 0
12 0
11 0
12 0
11 0
11 0
12 0
11 0
11 0
12 0
12 0
11 0
12 0
15 0
15 0
15 0
1 11 0
-1 11 0
11 0
11 0
11 0
15 1 0
15 -1 0
15 0
15 0
15 0
7 0
7 0
12 0
12 0
12 0
12 0
12 0
12 0
12 0
12 0
12 0
12 0
12 0
12 0
12 0
12 0
12 0
12 0
12 0
12 0
12 0
12 0
12 0
12 0
11 0
11 0
11 0
11 0
11 0
11 0
11 0
11 0
11 0
11 0
12 0
12 0
12 0
12 0
12 0
12 0
12 0
12 0
12 0
1 12 0
1 11 0
-1 12 0
-1 11 0
12 0
11 0
15 0
15 0
15 0
15 0
15 0
15 0
6 0
3 0
4 0
4 10 3 0
4 0
6 0
6 0
3 0
3 9 4 0
3 9 0
4 10 0
3 9 0
4 0
6 0
4 10 3 0
4 10 0
3 9 4 0
3 0
6 0
3 9 0
6 0
4 10 0
6 0
4 0
3 0
4 10 3 0
3 9 4 0
6 0
6 0
4 10 0
4 0
3 9 4 0
3 9 0
4 10 3 0
3 0
4 0
11 6 0
3 0
3 0
11 4 0
3 4 0
4 0
6 4 0
11 3 0
6 0
6 3 0
6 0
11 1 0
11 -1 0
11 0
15 1 0
15 -1 0
15 0
1 15 0
-1 15 0
15 0
1 15 0
-1 15 0
15 0
12 1 0
7 1 0
12 7 1 0
12 -1 0
7 -1 0
12 7 -1 0
7 0
12 0
1 12 0
-1 12 0
12 0
6 0
4 0
3 0
3 9 4 0
4 10 0
4 10 3 0
3 9 0
6 0
3 0
4 0
6 0
4 10 0
6 0
3 9 4 0
3 9 0
4 0
6 0
3 0
4 10 3 0
4 10 3 0
3 0
6 0
3 9 0
4 0
4 10 0
3 9 4 0
6 0
4 10 0
3 9 0
4 0
6 0
6 0
3 0
3 9 4 0
4 10 3 0
4 0
6 0
6 3 0
3 0
6 4 0
4 0
6 0
11 3 0
3 0
11 4 0
3 4 0
11 6 0
12 0
11 0
12 0
12 0
11 0
11 0
12 0
12 0
11 0
11 0
12 0
11 0
12 0
11 0
11 0
12 0
11 0
12 0
12 0
11 0
7 0
12 0
12 0
12 0
7 0
7 0
7 0
12 0
7 0
7 0
12 0
12 0
7 0
12 0
7 0
7 0
12 0
12 0
12 0
7 0
7 0
12 0
12 0
7 0
7 0
12 0
1 11 0
-1 11 0
11 0
7 0
7 0
7 0
7 0
7 0
7 0
7 0
7 0
7 0
7 0
7 0
7 0
7 0
15 0
15 0
1 12 0
1 11 0
-1 12 0
-1 11 0
12 0
11 0
12 0
12 0
12 0
12 0
12 0
12 0
12 0
12 0
12 0
15 1 0
15 -1 0
15 0
15 0
15 0
15 0
15 0
15 0
15 0
11 1 0
11 -1 0
11 0
1 7 0
-1 7 0
7 0
11 1 0
11 -1 0
11 0
7 1 0
7 -1 0
7 0
12 0
12 0
13 1 0
13 -1 0
13 0
15 1 0
15 -1 0
15 0
4 10 3 0
6 0
4 0
3 0
4 10 0
3 9 0
6 0
3 9 4 0
4 0
3 0
6 0
7 0
7 0
7 0
7 0
7 0
15 0
7 0
7 0
7 0
15 0
15 1 0
15 -1 0
15 0
5 14 0
5 14 0
12 0
12 0
12 0
12 0
12 0
12 0
11 0
11 0
11 0
11 0
12 0
12 0
12 0
12 0
11 0
11 0
11 0
12 0
12 0
11 0
11 0
12 0
12 0
12 0
12 13 0
13 12 0
12 0
12 0
13 0
13 0
12 0
12 0
12 13 0
12 0
13 12 0
12 0
12 0
12 0
13 12 0
12 0
12 0
12 0
13 0
13 12 0
12 0
13 0
12 0
12 13 0
12 0
12 0
12 0
12 13 0
1 15 0
-1 15 0
15 0
15 0
15 0
15 0
15 0
15 0
15 0
15 0
15 0
15 0
15 0
15 0
15 0
15 0
15 0
15 0
15 0
15 0
15 0
15 0
1 7 0
-1 7 0
7 0
11 0
15 1 0
15 -1 0
15 0
13 1 0
13 -1 0
13 0
4 -9 -10 0
3 -9 -10 0
-3 4 -10 0
-4 3 -9 0
4 10 1 0
4 10 3 1 0
4 3 1 9 0
3 9 1 0
4 3 -1 9 0
4 10 -1 0
3 9 -1 0
4 10 3 -1 0
3 0
4 0
11 1 0
11 -1 0
11 0
11 0
7 1 0
7 -1 0
7 0
13 0
5 0
13 0
5 14 0
13 0
5 0
13 0
5 0
5 13 14 0
5 13 0
5 13 0
5 0
5 13 14 0
13 0
5 0
13 0
5 14 0
13 0
5 0
13 0
13 0
5 13 14 0
5 13 0
5 14 0
13 0
5 0
13 0
5 14 0
5 13 14 0
13 0
5 13 0
13 0
5 0
5 0
5 0
13 0
1 11 0
1 12 0
-1 11 0
-1 12 0
11 0
12 0
1 11 0
-1 11 0
11 0
12 1 0
12 1 7 0
7 1 0
12 -1 0
7 -1 0
12 -1 7 0
12 0
7 0
12 7 0
4 0
4 10 3 0
4 10 0
3 9 4 0
3 0
3 9 0
6 0
6 0
3 0
6 0
4 0
15 0
15 0
15 0
15 0
11 0
3 0
4 0
6 0
3 9 0
4 10 0
6 0
11 0
3 0
4 0
3 9 4 0
11 0
4 10 3 0
6 0
11 0
6 0
3 9 4 0
4 0
11 0
4 10 0
3 9 0
4 10 3 0
3 0
6 0
6 0
3 0
4 0
3 9 0
4 10 0
3 9 4 0
11 0
6 0
4 10 3 0
11 0
4 10 3 0
11 0
11 0
4 10 0
4 0
3 9 4 0
6 0
3 9 0
6 0
3 0
4 0
6 0
3 0
6 0
3 9 4 0
4 10 3 0
4 10 0
3 9 0
7 0
7 0
7 0
7 0
7 0
15 0
7 0
7 0
7 0
15 0
15 1 0
15 -1 0
15 0
1 11 0
-1 11 0
11 0
15 0
15 0
1 11 0
-1 11 0
11 0
11 0
4 -9 -10 0
-3 4 -10 0
-4 3 -9 0
3 -9 -10 0
4 10 3 1 0
3 9 1 0
4 3 1 9 0
4 10 1 0
3 9 -1 0
4 3 -1 9 0
4 10 3 -1 0
4 10 -1 0
3 0
4 0
7 0
7 0
7 0
7 0
7 0
7 0
7 0
7 0
7 0
7 0
7 0
7 0
15 0
15 0
15 0
15 0
7 0
7 0
7 0
13 0
13 0
13 0
13 0
7 0
13 0
7 0
13 0
7 0
13 0
13 0
13 0
13 0
7 0
7 0
7 0
13 0
13 0
13 0
13 0
13 0
7 0
13 0
4 0
3 0
6 0
4 10 0
6 0
3 0
3 9 0
3 9 4 0
4 10 3 0
6 0
4 0
3 0
6 0
4 0
3 9 0
3 9 4 0
4 10 3 0
6 0
4 10 0
3 9 0
6 0
6 0
4 10 3 0
3 9 4 0
4 0
4 10 0
3 0
4 10 0
3 9 0
3 9 4 0
3 0
6 0
4 0
4 10 3 0
6 0
6 0
3 0
4 0
6 0
4 0
3 0
11 0
4 10 3 6 0
3 9 4 0
11 0
11 0
4 10 6 0
4 10 3 0
3 9 0
6 3 0
4 3 6 9 0
3 0
3 9 6 0
6 0
4 0
6 4 0
4 10 0
6 0
11 0
6 3 0
11 0
4 10 6 0
4 0
3 9 4 0
6 0
3 0
3 9 6 0
3 9 0
6 0
4 10 3 6 0
4 10 0
4 10 3 0
6 4 0
4 3 6 9 0
6 4 0
4 3 6 9 0
4 0
4 10 6 0
11 0
6 3 0
3 9 4 0
6 0
3 9 6 0
4 10 0
11 0
6 0
3 9 0
4 10 3 0
3 0
4 10 3 6 0
3 9 4 0
6 0
11 0
6 4 0
11 0
6 3 0
4 10 3 0
6 0
3 0
3 9 0
4 3 6 9 0
3 9 6 0
4 10 6 0
4 10 0
4 0
4 10 3 6 0
15 1 0
15 -1 0
15 0
15 0
15 0
15 0
15 0
15 0
15 0
15 0
15 -1 0
15 0
6 0
5 14 0
11 0
3 0
5 14 11 0
11 0
12 0
11 0
15 0
4 10 3 0
4 10 3 0
12 0
12 0
3 0
12 0
4 3 6 9 0
4 10 0
4 10 6 0
3 9 0
4 0
11 0
11 0
11 0
6 0
11 0
4 10 3 6 0
12 0
11 5 0
3 6 9 0
11 0
11 0
12 0
4 3 9 0
6 0
4 6 0
3 9 4 0
3 6 0
3 9 0
4 10 0
4 0
1 15 0
-1 15 0
15 0
15 1 0
15 -1 0
15 0
13 0
13 0
13 1 0
13 -1 0
13 0
2 0
11 0
5 14 0
2 8 0
11 0
11 0
2 0
2 0
2 8 0
2 0
11 0
2 0
5 14 0
11 0
2 0
11 0
11 0
11 0
2 0
11 0
2 8 0
5 14 0
2 0
2 0
11 0
2 0
5 14 0
11 0
2 0
11 0
2 0
2 8 0
11 0
11 0
11 0
11 0
11 0
11 0
11 0
11 0
11 0
11 0
12 1 0
12 -1 0
12 0
7 0
7 0
7 0
7 0
7 0
7 0
7 0
7 0
7 0
12 1 0
12 1 0
12 -1 0
12 0
12 0
12 0
12 0
12 0
13 0
13 0
12 0
11 0
12 0
11 0
11 1 0
11 -1 0
11 0
12 1 0
12 -1 0
12 0
4 0
6 0
11 0
3 0
11 0
4 0
3 9 4 0
6 3 0
6 4 0
3 0
4 10 0
11 0
4 10 3 6 0
6 0
4 3 6 9 0
4 10 6 0
4 10 3 0
3 9 6 0
6 0
3 9 0
4 10 0
3 9 4 0
3 9 0
4 10 3 0
3 9 6 0
6 4 0
4 3 6 9 0
11 0
6 0
4 0
4 10 3 6 0
3 0
6 3 0
11 0
4 10 6 0
6 0
4 0
4 3 6 9 0
11 0
4 10 0
3 9 6 0
3 0
4 10 6 0
6 3 0
11 0
6 0
3 9 0
3 9 4 0
4 10 3 6 0
6 4 0
6 0
4 10 3 0
3 9 0
6 3 0
4 10 3 6 0
6 0
11 0
3 9 4 0
4 10 6 0
4 3 6 9 0
4 10 3 0
11 0
6 0
6 4 0
3 0
3 9 6 0
4 0
4 10 0
6 0
11 0
3 0
4 0
15 0
15 1 0
15 -1 0
15 0
15 0
15 0
7 1 0
7 -1 0
7 0
13 1 0
13 -1 0
13 0
15 1 0
15 -1 0
15 0
1 7 0
-1 7 0
7 0
1 11 0
-1 11 0
11 0
-2 -16 -5 0
-2 -16 -5 0
-14 -2 -16 0
-2 -11 -16 -5 0
-14 -8 -16 0
-8 -16 -5 0
-14 -8 -16 0
-14 -2 -16 0
-2 -16 -5 0
-8 -16 -5 0
12 0
11 0
12 11 0
12 0
12 0
-3 4 -10 0
-4 3 -9 0
4 -9 -10 0
3 -9 -10 0
3 9 4 0
4 0
4 10 3 0
4 10 0
3 9 0
3 0
3 9 4 0
4 10 0
3 9 0
3 0
4 10 3 0
4 0
3 9 4 0
4 10 0
3 9 0
4 10 3 0
4 0
3 0
4 10 3 0
4 0
3 9 4 0
4 10 0
3 0
3 9 0
3 0
4 0
13 0
13 0
7 1 0
12 1 0
12 7 1 0
7 -1 0
12 -1 0
12 7 -1 0
7 0
12 0
15 0
15 0
15 0
15 0
15 0
15 0
15 0
15 0
15 0
15 0
11 0
12 0
12 0
11 0
11 0
11 0
12 0
12 0
12 0
11 0
12 0
11 0
11 0
12 0
12 0
11 0
7 0
11 0
11 0
11 0
11 0
-4 3 -9 0
-3 4 -10 0
4 -9 -10 0
3 -9 -10 0
3 9 0
4 10 0
4 10 3 0
3 9 4 0
4 0
3 0
3 9 0
4 10 3 0
3 0
4 10 0
3 9 4 0
4 0
4 0
4 10 0
3 9 0
4 10 3 0
3 9 4 0
3 0
3 9 0
4 10 3 0
3 0
4 0
4 10 0
3 9 4 0
3 0
4 0
7 1 0
7 -1 0
7 0
7 0
7 0
5 14 0
5 14 0
4 -9 -10 0
-4 3 -9 0
3 -9 -10 0
-3 4 -10 0
4 3 1 9 0
4 10 3 1 0
3 9 1 0
4 10 1 0
4 10 3 -1 0
4 10 -1 0
3 9 -1 0
4 3 -1 9 0
3 0
4 0
11 0
11 0
11 0
11 0
11 0
11 0
11 0
11 0
11 0
11 0
1 11 0
-1 11 0
11 0
1 7 0
-1 7 0
7 0
13 1 0
13 -1 0
13 0
1 11 0
-1 11 0
11 0
13 0
13 0
13 0
13 0
13 0
13 0
13 0
13 0
13 0
13 0
3 9 0
3 9 4 0
3 9 4 0
3 9 0
4 10 0
4 10 3 0
3 9 0
3 9 4 0
4 10 3 0
4 10 0
4 10 0
4 10 3 0
4 10 3 0
4 10 3 0
3 9 4 0
3 9 4 0
4 10 0
4 10 0
3 9 4 0
3 9 0
4 10 0
3 9 0
3 9 0
4 10 3 0
4 0
3 0
4 0
4 0
3 0
3 0
4 10 0
3 9 0
4 10 0
3 9 4 0
3 0
3 9 0
4 0
4 10 0
4 10 3 0
3 9 4 0
3 9 0
4 10 0
3 9 4 0
3 9 0
4 10 3 0
4 10 3 0
3 0
4 0
4 0
3 0
3 0
4 0
4 0
3 0
1 12 0
1 11 0
-1 11 0
-1 12 0
12 0
11 0
13 0
13 0
13 0
13 0
13 0
13 0
13 0
13 0
13 0
13 0
13 0
13 0
13 0
13 0
13 0
13 0
13 0
13 0
13 0
13 0
13 0
13 0
-3 4 -10 0
3 -9 -10 0
-4 3 -9 0
4 -9 -10 0
4 3 1 9 0
3 9 1 0
4 10 1 0
4 10 3 1 0
3 9 -1 0
4 10 -1 0
4 10 3 -1 0
4 3 -1 9 0
3 0
4 0
1 11 0
-1 11 0
11 0
15 0
15 0
11 0
15 0
15 0
15 0
15 0
12 0
11 0
12 0
11 0
1 12 0
-1 12 0
12 0
15 0
15 0
15 0
15 0
13 0
15 0
15 0
13 0
15 0
13 0
15 0
13 0
15 0
15 0
15 0
13 0
15 0
7 1 0
7 -1 0
7 0
13 1 0
13 -1 0
13 0
12 1 0
12 -1 0
12 0
13 0
13 0
13 0
13 0
13 0
13 0
13 0
13 0
13 0
13 0
7 0
3 9 4 0
4 10 6 0
3 9 6 0
6 0
4 10 3 0
4 3 6 9 0
3 9 0
6 4 0
6 3 0
4 10 0
4 10 3 6 0
4 10 0
4 10 3 0
4 10 3 6 0
6 3 0
3 9 0
3 9 6 0
3 9 4 0
6 4 0
6 0
4 10 6 0
4 3 6 9 0
3 -1 0
4 -1 0
3 -1 0
6 -1 0
6 -1 0
4 3 -1 0
4 6 -1 0
4 -1 0
3 6 -1 0
3 9 4 0
4 10 6 0
3 9 4 0
4 0
3 0
6 0
6 3 0
4 10 3 0
4 10 0
3 9 6 0
4 3 6 9 0
3 9 0
6 4 0
4 10 3 0
6 0
3 9 0
4 10 0
6 0
4 10 3 6 0
3 0
4 0
6 0
3 0
6 0
4 0
13 0
13 0
13 0
13 0
15 1 0
15 -1 0
15 0
2 0
4 0
3 0
6 0
2 0
4 0
6 0
3 0
-1 0
6 0
3 0
2 0
4 0
1 11 0
-1 11 0
11 0
13 1 0
13 -1 0
13 0
15 1 0
15 -1 0
15 0
12 0
12 0
13 0
13 0
13 0
13 0
13 0
13 0
13 0
13 0
13 0
13 0
12 0
12 0
3 0
4 0
4 10 0
4 0
3 0
3 9 4 0
3 9 0
4 10 3 0
4 10 3 0
4 10 0
3 0
4 0
3 9 0
3 9 4 0
4 10 0
4 0
3 9 4 0
3 0
4 10 3 0
3 9 0
3 9 4 0
4 0
4 10 3 0
3 0
4 10 0
3 9 0
3 0
4 0
1 15 0
-1 15 0
15 0
7 0
7 0
1 12 0
-1 12 0
12 0
12 0
12 0
11 0
11 0
13 0
13 0
13 0
13 0
13 0
13 0
13 0
13 0
13 0
13 0
13 0
13 0
13 0
13 0
7 0
7 0
7 0
7 0
11 1 0
11 -1 0
11 0
15 0
15 0
7 2 0
2 8 7 0
2 8 7 0
7 0
7 2 0
7 0
7 0
2 8 7 0
7 0
7 2 0
7 0
7 0
15 1 0
15 -1 0
15 0
3 9 0
4 0
6 0
4 10 3 0
6 0
4 10 0
3 9 4 0
3 0
3 0
6 0
4 0
1 15 0
-1 15 0
15 0
1 15 0
-1 15 0
15 0
3 9 0
3 0
3 9 4 0
4 10 3 0
4 0
4 10 0
3 9 0
3 0
3 9 4 0
4 10 3 0
4 0
4 10 0
1 11 0
-1 11 0
11 0
5 0
13 0
5 0
13 0
5 13 14 0
13 0
5 0
5 13 0
5 14 0
13 0
13 0
5 0
5 0
5 13 0
5 13 14 0
13 0
13 0
5 14 0
5 0
13 0
5 13 0
5 13 14 0
13 0
5 14 0
13 0
5 0
5 0
5 13 14 0
13 0
13 0
5 14 0
13 0
5 0
5 13 0
13 0
5 0
3 9 4 0
3 0
4 10 0
4 0
3 9 0
6 0
6 0
4 10 3 0
6 0
3 0
4 0
7 0
15 0
15 0
15 0
15 0
7 0
7 0
15 0
15 0
7 0
15 0
7 0
15 0
15 0
7 0
7 0
15 0
15 0
7 0
15 0
7 0
15 0
15 0
7 0
15 0
15 0
15 0
15 0
11 0
11 0
13 12 1 0
12 1 0
12 13 1 0
13 1 0
13 12 -1 0
12 -1 0
12 13 -1 0
13 -1 0
13 0
12 0
11 0
11 0
11 0
11 0
11 0
11 0
11 0
11 0
11 0
3 9 4 0
4 10 0
3 0
4 0
3 9 0
4 10 3 0
3 9 4 0
3 0
4 10 3 0
4 0
4 0
3 9 4 0
4 10 3 0
4 10 0
4 10 0
3 9 0
3 9 0
3 0
7 11 1 0
1 7 0
7 11 -1 0
-1 7 0
7 11 0
7 0
6 0
4 0
3 0
3 9 0
4 10 3 0
6 0
4 0
6 0
3 9 4 0
3 0
4 10 0
3 0
3 9 0
4 0
3 9 4 0
4 10 0
6 0
4 10 3 0
6 0
3 9 4 0
4 10 3 0
3 9 0
4 0
3 0
6 0
6 0
4 10 0
4 10 3 0
6 0
3 0
3 9 4 0
3 9 0
6 0
4 0
4 10 0
11 4 0
11 3 0
4 0
6 4 0
4 0
6 3 0
3 0
3 0
6 0
6 0
11 6 0
3 4 0
12 1 0
12 -1 0
12 0
12 1 0
12 13 1 0
13 12 1 0
13 1 0
12 13 -1 0
12 -1 0
13 12 -1 0
13 -1 0
13 0
12 0
11 0
-3 4 -10 0
-4 3 -9 0
3 -9 -10 0
4 -9 -10 0
3 9 0
3 9 4 0
4 10 3 0
4 10 0
3 0
4 0
4 10 3 0
4 10 0
3 9 0
3 9 4 0
3 0
4 0
4 0
3 9 0
3 0
3 9 4 0
4 10 3 0
4 10 0
4 10 0
3 9 0
4 10 3 0
3 9 4 0
3 0
4 0
3 0
4 0
1 7 0
-1 7 0
7 0
15 0
11 0
11 0
15 0
11 0
11 0
15 0
11 0
15 0
11 0
15 0
15 0
11 0
11 0
15 0
15 0
15 0
11 0
11 0
11 0
11 0
15 0
11 0
15 0
15 0
11 0
15 0
11 0
11 0
15 0
15 0
4 10 0
4 10 3 0
4 10 0
4 10 3 0
3 9 0
3 9 4 0
3 9 0
3 9 4 0
6 0
3 9 0
6 0
4 10 3 0
4 10 3 0
4 10 0
3 9 0
4 10 0
3 9 4 0
3 9 4 0
4 0
6 0
3 0
4 0
3 0
15 0
15 0
15 0
15 0
15 0
15 0
15 0
15 0
15 0
15 0
15 0
1 12 0
-1 12 0
12 0
11 0
12 0
12 0
11 0
11 0
11 1 0
12 1 0
11 12 1 0
11 -1 0
11 12 -1 0
12 -1 0
12 0
11 0
12 0
12 0
12 1 0
12 -1 0
12 0
1 7 0
-1 7 0
7 0
12 0
12 0
7 11 0
7 11 0
7 11 0
7 11 0
7 11 0
7 11 0
7 11 0
7 11 0
7 11 0
7 11 0
13 0
15 0
13 0
15 0
13 0
15 0
13 0
15 0
15 0
13 0
13 0
15 0
13 0
15 0
15 0
15 0
13 0
13 0
15 0
13 0
5 14 0
2 8 0
2 0
2 0
5 0
5 14 0
2 0
5 0
2 0
2 8 0
2 8 0
5 14 0
2 0
2 0
5 0
2 8 0
2 0
5 14 0
11 0
11 1 0
11 -1 0
11 0
3 9 0
4 3 9 0
13 0
3 0
3 9 0
7 0
4 3 9 0
13 0
4 3 9 0
4 0
4 10 0
12 0
4 10 0
7 0
7 0
13 0
13 0
12 0
3 0
12 7 0
12 7 0
15 0
12 0
12 0
4 10 0
4 0
4 10 3 0
13 0
7 0
7 0
12 0
13 0
4 10 3 0
4 0
3 9 0
4 10 3 0
12 0
3 0
12 0
3 0
3 0
13 0
13 0
12 0
4 10 3 0
12 0
4 10 0
4 10 3 0
4 3 9 0
4 10 0
4 0
13 0
12 0
4 10 0
4 3 9 0
3 9 0
7 0
7 0
12 0
12 0
7 0
13 0
12 0
7 0
3 9 0
4 10 3 0
13 0
7 0
3 9 0
13 0
4 0
4 3 9 0
4 0
15 0
12 0
12 7 0
3 0
12 7 0
12 0
12 0
13 0
3 0
12 0
3 0
15 0
13 0
7 0
7 0
13 0
4 0
12 0
12 0
7 0
12 0
12 0
3 0
7 0
4 0
4 0
-3 4 -10 0
4 -9 -10 0
-4 3 -9 0
3 -9 -10 0
4 10 3 1 0
3 9 1 0
4 10 1 0
4 3 1 9 0
4 10 3 -1 0
3 9 -1 0
4 3 -1 9 0
4 10 -1 0
3 0
4 0
1 15 0
-1 15 0
15 0
4 0
6 0
11 0
3 0
3 0
6 4 0
3 9 6 0
4 0
11 0
6 0
4 3 6 9 0
4 10 3 6 0
6 3 0
6 0
4 10 0
3 9 0
4 10 3 0
4 10 6 0
3 9 4 0
11 0
6 4 0
3 0
11 0
6 0
4 3 6 9 0
4 0
4 10 0
4 10 6 0
11 0
3 9 0
3 9 6 0
4 10 3 6 0
3 9 4 0
6 0
6 3 0
4 10 3 0
6 0
4 0
4 10 3 6 0
3 0
4 10 6 0
4 3 6 9 0
3 9 4 0
6 4 0
11 0
3 9 6 0
6 0
4 10 0
4 10 3 0
11 0
6 3 0
3 9 0
6 0
6 3 0
4 10 0
6 4 0
4 3 6 9 0
6 0
3 9 0
4 10 3 0
4 0
11 0
4 10 3 6 0
4 10 6 0
3 0
3 9 4 0
11 0
3 9 6 0
12 0
12 0
1 7 0
-1 7 0
7 0
15 1 0
15 -1 0
15 0
15 0
15 0
7 1 0
12 1 0
12 7 1 0
12 -1 0
12 7 -1 0
7 -1 0
7 0
12 0
6 0
4 10 3 0
3 9 0
4 10 0
3 0
6 0
3 9 4 0
4 0
3 0
4 0
6 0
12 13 1 0
13 12 1 0
12 1 0
13 1 0
12 13 -1 0
13 -1 0
12 -1 0
13 12 -1 0
13 0
12 0
1 12 0
-1 12 0
12 0
11 0
11 0
13 0
13 0
13 0
7 1 0
7 -1 0
7 0
15 1 0
15 -1 0
15 0
1 15 0
-1 15 0
15 0
15 1 0
15 -1 0
15 0
4 0
6 0
3 0
2 0
4 10 6 0
4 10 0
6 0
4 3 6 9 0
6 3 0
6 4 0
4 10 3 0
3 9 4 0
2 8 0
4 10 3 6 0
3 9 6 0
3 9 0
-1 0
2 0
4 0
3 0
6 0
7 1 0
12 1 0
12 7 1 0
7 -1 0
12 7 -1 0
12 -1 0
7 0
12 0
12 1 0
12 -1 0
12 0
11 1 0
11 -1 0
11 0
3 0
4 10 0
3 9 4 0
4 0
6 0
3 9 0
4 10 3 0
6 0
4 0
6 0
3 0
7 0
7 0
15 0
15 0
12 1 0
11 12 1 0
11 1 0
11 -1 0
11 12 -1 0
12 -1 0
11 0
12 0
11 0
11 0
7 0
7 0
7 0
7 0
7 0
7 0
7 0
7 0
7 0
7 0
7 0
7 0
7 0
7 0
15 0
15 0
15 0
15 0
15 0
15 0
15 0
15 0
15 0
15 0
11 12 1 0
12 1 0
11 1 0
11 12 -1 0
12 -1 0
11 -1 0
12 0
11 0
1 12 0
1 11 0
-1 12 0
-1 11 0
12 0
11 0
1 11 0
-1 11 0
11 0
13 1 0
13 -1 0
13 0
11 12 1 0
12 1 0
11 1 0
11 -1 0
11 12 -1 0
12 -1 0
11 0
12 0
15 0
15 0
15 1 0
15 -1 0
15 0
4 10 0
4 10 0
4 0
4 10 0
4 3 9 0
4 10 3 0
3 9 4 0
3 9 0
3 9 0
4 0
4 10 0
3 9 4 0
3 9 4 0
3 9 4 0
3 9 0
4 10 3 0
4 10 0
3 0
4 10 0
4 0
3 9 0
3 0
4 3 9 0
3 9 0
4 10 3 0
3 9 0
4 10 3 0
4 10 3 0
4 10 3 0
3 0
3 0
3 9 0
3 0
4 10 3 0
4 10 0
4 10 3 0
4 10 3 0
3 9 0
4 0
4 0
4 10 3 0
4 10 0
3 9 0
4 10 0
4 3 9 0
4 10 0
3 9 0
3 9 4 0
3 9 4 0
4 10 3 0
4 3 9 0
4 10 0
3 9 0
3 9 4 0
4 10 3 0
4 0
4 10 0
3 9 4 0
3 9 0
3 0
3 0
4 0
4 0
3 0
4 0
4 0
3 0
4 0
4 0
3 0
3 0
3 0
3 0
3 0
3 9 0
3 9 0
3 9 4 0
4 10 3 0
3 9 4 0
3 0
4 10 0
4 0
3 0
4 0
3 9 4 0
3 9 0
4 10 0
3 9 0
3 9 0
3 9 0
4 10 0
4 10 0
4 10 3 0
4 3 9 0
4 10 0
3 9 0
4 0
4 10 3 0
4 10 3 0
4 3 9 0
4 10 0
4 0
4 10 3 0
4 10 3 0
3 9 4 0
4 10 0
4 0
3 0
4 0
4 0
3 0
3 0
3 0
4 0
3 0
4 0
4 0
4 0
3 0
3 0
7 0
12 0
12 0
12 7 0
12 0
12 0
7 0
7 0
12 0
12 0
12 7 0
12 0
12 0
7 0
7 0
7 0
11 0
3 0
6 0
4 0
6 0
6 0
4 10 0
4 10 3 0
11 0
3 9 4 0
4 0
3 0
11 0
3 9 0
3 0
11 0
3 9 4 0
6 0
11 0
4 10 0
4 10 3 0
4 0
3 9 0
6 0
3 9 4 0
11 0
4 0
3 9 0
4 10 3 0
3 0
11 0
6 0
6 0
4 10 0
3 9 0
11 0
4 10 0
3 9 4 0
4 10 3 0
3 0
4 0
11 0
6 0
6 0
-8 -16 -5 0
-2 -16 -5 0
-2 -16 -5 0
-14 -8 -16 0
-14 -2 -16 0
-2 -11 -16 -5 0
-14 -2 -16 0
-2 -16 -5 0
-14 -8 -16 0
-8 -16 -5 0
1 15 0
-1 15 0
15 0
15 0
15 0
13 1 0
13 -1 0
13 0
7 0
7 0
7 0
7 0
7 0
7 0
7 0
7 0
7 0
6 0
4 0
3 0
2 0
4 3 6 9 0
4 10 6 0
3 9 6 0
4 10 3 6 0
6 4 0
3 9 4 0
4 10 0
2 8 0
4 10 3 0
6 0
3 9 0
6 3 0
-1 0
6 0
2 0
3 0
4 0
11 0
11 0
7 0
7 0
7 0
7 0
7 0
7 0
7 0
7 0
7 0
5 0
13 0
5 0
5 14 0
5 13 14 0
5 13 0
5 0
13 0
13 0
13 0
13 0
5 0
5 14 0
13 0
5 13 14 0
13 0
5 13 0
5 0
5 0
5 13 14 0
5 14 0
13 0
5 13 0
5 0
13 0
13 0
13 0
13 0
5 0
5 13 14 0
5 0
5 13 0
13 0
5 14 0
13 0
5 0
15 0
15 0
15 0
15 0
15 0
15 0
15 0
15 0
15 0
15 0
4 10 3 0
4 10 3 0
4 10 0
4 10 0
3 9 0
4 10 0
3 9 0
4 10 3 0
3 0
4 0
3 9 4 0
3 9 4 0
4 3 9 0
3 9 0
4 10 3 0
3 9 0
3 9 0
4 10 0
4 10 0
3 9 4 0
4 3 9 0
4 10 0
4 10 3 0
4 10 3 0
3 0
3 9 0
4 0
3 9 4 0
4 0
3 0
3 0
4 0
3 0
4 0
3 9 4 0
4 3 9 0
4 0
4 10 3 0
3 9 0
4 10 3 0
3 0
3 9 4 0
4 10 0
3 9 4 0
4 10 3 0
3 9 0
4 0
4 10 0
3 9 0
4 10 3 0
4 10 0
4 10 0
3 0
3 9 0
3 0
4 0
3 0
3 0
4 0
3 0
4 0
4 0
4 10 0
3 9 4 0
4 10 3 0
3 9 0
3 9 0
3 9 4 0
4 10 3 0
4 10 0
1 11 0
-1 11 0
11 0
7 0
7 0
7 0
12 0
12 0
7 0
7 0
7 0
12 0
12 0
-14 -2 -16 0
-2 -11 -16 -5 0
-8 -16 -5 0
-2 -16 -5 0
-2 -16 -5 0
-14 -8 -16 0
-8 -16 -5 0
-14 -2 -16 0
-2 -16 -5 0
-14 -8 -16 0
7 0
7 0
7 0
7 0
7 0
7 0
7 0
7 0
7 0
13 1 0
13 -1 0
13 0
15 1 0
15 -1 0
15 0
15 0
15 0
15 0
15 -1 0
15 0
7 0
7 0
7 0
7 0
7 0
7 0
7 0
7 0
7 0
7 0
7 0
7 0
7 0
7 0
7 0
7 0
7 0
7 0
7 0
7 0
7 0
13 1 0
13 -1 0
13 0
11 0
2 8 0
11 0
5 14 0
2 0
2 0
2 8 0
11 0
5 14 0
11 0
5 14 0
11 0
2 0
2 8 0
11 0
11 0
5 14 0
2 8 0
2 0
11 0
13 0
5 0
5 13 14 0
13 0
13 0
5 14 0
5 0
5 13 0
13 0
5 0
5 13 0
5 13 14 0
5 14 0
13 0
5 0
13 0
13 0
5 0
5 0
13 0
5 13 14 0
5 14 0
5 13 0
13 0
13 0
5 0
5 13 0
5 0
5 0
13 0
5 13 14 0
13 0
13 0
5 14 0
13 0
5 0
12 0
11 0
12 0
15 0
15 0
15 0
15 0
15 0
15 0
15 0
15 0
15 0
15 0
7 0
7 0
7 0
7 0
15 1 0
15 -1 0
15 0
15 0
11 0
11 0
1 7 0
-1 7 0
7 0
6 0
4 0
3 0
11 0
3 9 6 0
4 0
6 0
4 10 6 0
3 0
4 10 0
6 4 0
4 10 3 6 0
6 0
6 3 0
11 0
4 3 6 9 0
11 0
3 9 0
3 9 4 0
4 10 3 0
4 10 6 0
6 0
6 3 0
6 0
4 10 3 0
3 9 6 0
4 10 0
3 9 4 0
4 0
3 9 0
4 3 6 9 0
4 10 3 6 0
11 0
3 0
11 0
6 4 0
6 0
4 10 0
3 9 6 0
6 0
6 4 0
4 10 3 6 0
3 0
11 0
4 10 6 0
11 0
3 9 0
3 9 4 0
6 3 0
4 3 6 9 0
4 10 3 0
4 0
11 0
11 0
4 3 6 9 0
3 9 4 0
6 0
6 3 0
6 4 0
6 0
4 10 6 0
4 10 3 0
3 0
3 9 6 0
3 9 0
4 10 0
4 10 3 6 0
4 0
7 0
7 0
7 0
7 0
7 0
7 0
7 0
7 0
7 0
7 0
7 0
7 0
7 0
7 0
7 0
7 0
11 0
7 0
7 0
7 0
7 0
7 -1 0
7 0
7 0
7 0
4 10 0
3 9 0
4 10 3 0
4 10 0
4 10 3 0
3 9 0
4 0
3 9 0
4 10 3 0
4 10 3 0
3 9 0
3 9 4 0
4 10 3 0
4 10 0
3 0
4 10 3 0
4 10 0
4 10 0
3 9 4 0
4 3 9 0
3 0
3 9 4 0
4 10 0
4 10 3 0
3 9 0
4 10 3 0
4 10 0
3 9 4 0
4 3 9 0
3 9 0
4 10 0
3 9 4 0
4 10 0
3 0
4 0
3 9 4 0
4 3 9 0
3 9 4 0
4 10 3 0
3 9 0
3 0
3 9 4 0
3 9 0
4 0
4 10 3 0
4 10 0
3 9 4 0
4 3 9 0
4 10 0
4 10 3 0
3 9 0
4 10 3 0
4 0
3 9 0
4 10 3 0
3 9 0
4 10 0
4 10 0
3 9 0
3 9 0
3 0
3 9 4 0
4 10 3 0
3 9 0
4 10 3 0
3 0
3 0
4 10 0
4 10 3 0
3 9 0
3 9 4 0
4 10 3 0
4 3 9 0
4 3 9 0
4 10 0
4 10 0
4 10 3 0
4 10 0
4 3 9 0
3 9 0
3 9 4 0
3 9 4 0
3 9 0
4 10 0
4 0
3 9 4 0
3 9 0
4 10 0
4 10 3 0
4 10 0
3 0
4 0
4 10 3 0
3 9 0
3 9 0
4 10 0
4 10 3 0
4 10 3 0
3 9 0
4 0
4 10 3 0
3 9 4 0
4 3 9 0
3 9 0
4 0
3 9 0
4 10 0
4 10 0
4 10 0
4 10 0
3 9 4 0
3 9 0
4 10 0
4 10 3 0
3 9 4 0
3 9 0
3 9 4 0
3 9 0
4 10 3 0
4 10 3 0
4 0
4 0
4 0
4 0
4 0
3 0
3 0
3 0
4 0
3 0
3 0
4 0
3 0
4 0
4 0
4 0
3 0
4 0
4 0
3 0
3 0
3 0
3 0
3 0
4 0
3 0
4 0
3 9 0
3 9 0
4 3 9 0
4 10 0
4 10 3 0
3 9 0
4 3 9 0
4 10 0
4 10 0
3 0
3 9 0
4 10 3 0
3 9 4 0
3 9 0
4 10 0
4 0
3 9 0
4 10 0
3 9 4 0
3 9 0
3 9 0
3 0
3 9 0
4 10 3 0
4 10 3 0
4 10 0
4 10 0
4 10 3 0
4 10 3 0
4 10 3 0
3 9 4 0
4 10 0
3 9 0
4 10 0
4 10 3 0
4 10 0
4 10 3 0
4 10 3 0
3 9 4 0
4 10 3 0
4 10 0
4 10 3 0
4 0
3 9 0
3 9 4 0
3 0
3 9 4 0
4 10 3 0
3 0
3 9 4 0
4 3 9 0
3 9 0
4 0
4 10 0
4 10 0
3 9 0
4 3 9 0
4 0
3 9 4 0
3 9 4 0
3 0
3 9 0
4 10 0
3 0
4 0
3 0
4 0
3 0
3 0
4 0
3 0
4 0
4 0
3 0
4 0
3 0
4 0
4 0
4 0
3 0
3 0
4 0
3 0
3 0
3 0
4 0
4 0
3 0
4 0
3 0
4 0
13 0
13 0
13 0
13 0
13 0
13 0
13 0
13 0
13 0
13 0
13 1 0
13 -1 0
13 0
1 11 0
-1 11 0
11 0
12 0
11 0
15 0
11 0
11 0
12 0
11 0
15 0
12 0
11 0
11 0
11 0
11 0
12 0
11 0
12 0
15 0
11 0
11 0
11 0
11 0
12 0
12 0
15 0
11 0
15 0
12 0
11 0
11 0
4 10 0
3 9 0
6 0
6 0
4 10 3 0
3 0
3 9 4 0
4 0
4 0
6 0
3 0
5 14 0
5 14 0
7 1 0
12 1 0
12 7 1 0
12 -1 0
7 -1 0
12 7 -1 0
7 0
12 0
7 0
7 0
7 0
7 0
7 0
7 0
7 0
7 0
7 0
7 0
7 0
7 0
7 0
7 0
7 0
7 0
7 0
7 0
7 0
7 0
7 0
13 0
7 0
7 0
13 0
13 0
7 0
13 0
7 0
7 0
7 0
13 0
7 0
13 0
13 0
13 0
7 1 0
7 -1 0
7 0
11 0
11 0
11 0
11 0
11 0
11 0
11 0
11 0
11 0
11 0
11 0
11 0
11 0
11 0
11 0
11 0
11 0
11 0
11 0
11 0
11 0
11 0
11 0
7 0
12 0
7 0
7 0
7 0
12 0
7 0
12 0
7 0
12 0
7 0
7 0
7 0
12 0
7 0
7 0
7 0
12 0
7 0
12 0
7 0
7 0
7 0
7 0
12 0
12 0
7 0
7 0
7 0
7 0
7 0
12 0
15 1 0
15 -1 0
15 0
1 12 0
-1 12 0
12 0
7 0
7 0
7 0
7 0
13 0
13 0
13 0
13 0
13 0
13 0
13 0
13 0
13 0
13 0
3 0
3 9 4 0
6 0
3 9 0
4 0
4 10 3 0
6 0
4 10 0
2 0
2 -8 0
2 0
-8 2 0
2 -8 0
2 0
2 -8 0
-8 0
-8 0
2 -8 0
-8 0
2 -8 0
-8 0
2 -8 0
2 0
2 -8 0
2 -8 0
2 0
2 -8 0
-8 2 0
2 -8 0
2 0
2 0
-8 0
2 -8 0
2 0
2 -8 0
2 -8 0
-8 0
-8 0
-8 0
2 -8 0
2 -8 0
2 0
2 -8 0
-8 0
2 0
-8 0
2 -8 0
2 -8 0
-8 2 0
-8 0
2 0
2 -8 0
-8 0
-8 2 0
-8 0
2 0
-8 0
2 0
2 -8 0
2 -8 0
2 -8 0
2 -8 0
2 -8 0
2 0
1 12 0
-1 12 0
12 0
-4 3 -9 0
-3 4 -10 0
3 -9 -10 0
4 -9 -10 0
4 10 3 1 0
4 3 1 9 0
4 10 1 0
3 9 1 0
4 10 -1 0
3 9 -1 0
4 3 -1 9 0
4 10 3 -1 0
3 0
4 0
-4 3 -9 0
3 -9 -10 0
-3 4 -10 0
4 -9 -10 0
4 10 3 0
3 9 4 0
3 0
3 9 0
4 0
4 10 0
3 9 4 0
4 10 3 0
3 0
3 9 0
4 10 0
4 0
3 0
4 10 3 0
3 9 0
3 9 4 0
4 10 0
4 0
3 9 4 0
4 10 0
4 10 3 0
4 0
3 9 0
3 0
3 0
4 0
7 0
7 0
-3 4 -10 0
4 -9 -10 0
-4 3 -9 0
3 -9 -10 0
4 10 3 1 0
3 9 1 0
4 3 1 9 0
4 10 1 0
4 10 3 -1 0
3 9 -1 0
4 3 -1 9 0
4 10 -1 0
3 0
4 0
1 15 0
-1 15 0
15 0
15 0
15 0
12 0
12 0
7 0
7 0
7 0
12 0
12 0
7 0
12 0
12 0
7 0
7 0
7 -1 0
12 -1 0
7 0
7 0
12 0
12 0
7 0
7 0
12 0
7 0
7 0
7 0
12 0
7 0
7 0
7 0
7 0
7 0
7 0
7 0
7 0
7 0
7 0
1 15 0
-1 15 0
15 0
2 0
5 14 0
5 0
2 0
2 0
5 0
2 0
5 14 0
2 0
5 14 0
2 0
5 0
5 14 0
2 0
3 0
4 0
3 9 4 0
4 10 3 0
6 0
4 10 0
3 9 0
6 0
6 0
3 0
4 0
15 7 0
15 0
7 0
15 0
7 0
7 0
7 0
15 0
7 0
7 0
7 0
15 0
7 0
15 7 0
7 0
7 0
7 0
15 0
7 0
15 0
7 0
15 7 0
15 0
7 0
7 0
15 0
7 0
7 0
6 0
3 0
4 0
4 10 3 0
6 0
4 10 0
4 0
6 4 0
4 10 6 0
4 10 3 6 0
3 0
3 9 0
3 9 4 0
6 3 0
3 9 6 0
6 0
4 3 6 9 0
3 9 4 0
6 0
6 0
4 3 6 9 0
4 10 3 6 0
3 0
4 0
6 4 0
3 9 6 0
4 10 3 0
6 3 0
4 10 0
3 9 0
4 10 6 0
4 10 3 6 0
4 3 6 9 0
6 0
3 0
4 0
3 9 4 0
6 0
4 10 3 0
4 10 6 0
4 10 0
6 3 0
3 9 6 0
6 4 0
3 9 0
6 0
3 9 6 0
4 3 6 9 0
4 10 0
6 3 0
6 0
3 0
4 10 3 0
3 9 4 0
4 10 6 0
4 0
3 9 0
4 10 3 6 0
6 4 0
4 0
3 0
6 0
12 0
12 0
11 0
11 0
12 0
11 0
12 0
11 0
12 0
11 0
12 0
11 0
12 0
11 0
12 0
11 0
12 0
11 0
1 11 0
-1 11 0
11 0
2 8 1 0
2 -1 0
5 14 0
5 14 0
5 14 0
5 14 0
5 14 0
5 14 0
5 0
5 0
5 0
5 14 0
5 14 0
5 14 0
5 0
5 0
5 0
12 0
11 0
12 0
11 0
15 0
15 0
1 11 0
-1 11 0
11 0
15 0
15 0
15 0
15 0
15 0
15 0
15 0
15 0
15 0
15 0
13 0
5 13 0
13 0
5 0
5 0
5 14 0
5 13 14 0
13 0
13 0
13 0
5 0
5 13 14 0
5 13 0
5 14 0
5 0
13 0
13 0
13 0
5 0
5 13 14 0
5 13 0
5 14 0
5 0
13 0
3 -9 -10 0
-4 3 -9 0
-3 4 -10 0
4 -9 -10 0
3 9 1 0
4 3 1 9 0
4 10 1 0
4 10 3 1 0
3 9 -1 0
4 10 3 -1 0
4 3 -1 9 0
4 10 -1 0
3 0
4 0
12 0
12 0
12 0
12 0
12 0
12 0
12 0
12 0
12 0
12 0
13 0
13 0
13 0
15 0
15 0
7 0
12 0
12 13 0
7 0
13 12 0
7 0
12 0
12 0
12 7 0
12 0
7 0
12 0
12 0
12 0
7 0
13 0
7 0
7 0
7 0
12 7 0
12 7 0
7 0
12 0
12 0
11 12 0
12 0
12 0
7 0
7 0
7 0
12 0
7 0
7 0
12 7 0
11 0
7 0
13 12 0
12 0
12 0
12 13 0
12 0
12 7 0
12 0
12 7 0
12 0
13 0
7 0
12 0
7 0
7 0
12 0
12 13 0
7 0
13 12 0
7 0
12 0
12 0
12 7 0
12 0
7 0
12 0
12 0
12 0
7 0
13 0
7 0
7 0
7 0
12 7 0
12 7 0
7 0
12 0
12 0
11 12 0
12 0
12 0
7 0
7 0
7 0
12 0
7 0
7 0
12 7 0
11 0
7 0
13 12 0
12 0
12 0
12 13 0
12 0
12 7 0
12 0
12 7 0
12 0
13 0
7 0
12 0
7 0
13 0
13 0
13 0
13 0
13 0
13 0
12 0
11 0
12 0
1 12 0
1 11 0
-1 12 0
-1 11 0
12 0
11 0
12 0
12 0
12 0
12 0
12 0
12 0
12 0
12 0
12 0
7 0
7 0
7 0
7 0
7 0
7 0
7 0
7 -1 0
7 0
7 1 0
7 -1 0
7 0
7 0
7 0
7 0
7 0
7 0
7 0
7 0
7 -1 0
7 0
15 1 0
15 -1 0
15 0
11 0
12 0
11 0
12 0
2 8 12 0
12 0
12 0
2 8 12 0
12 0
12 0
1 15 0
-1 15 0
15 0
3 0
4 0
4 0
3 9 4 0
4 10 0
3 0
3 9 0
4 10 3 0
4 10 3 0
3 0
4 10 0
3 9 0
4 0
3 9 4 0
3 9 4 0
3 9 0
3 0
4 0
4 10 0
4 10 3 0
3 9 4 0
3 0
4 0
4 10 0
4 10 3 0
3 9 0
3 0
4 0
13 12 1 0
12 1 0
12 13 1 0
13 1 0
13 12 -1 0
12 -1 0
12 13 -1 0
13 -1 0
13 0
12 0
15 0
15 7 0
7 0
15 0
7 0
7 0
7 0
7 0
15 0
15 7 0
7 0
15 0
7 0
7 0
7 0
7 0
11 0
11 0
15 0
15 0
13 1 0
13 -1 0
13 0
1 11 0
-1 11 0
11 0
4 -9 -10 0
3 -9 -10 0
-3 4 -10 0
-4 3 -9 0
4 10 3 1 0
4 3 1 9 0
4 10 1 0
3 9 1 0
4 3 -1 9 0
4 10 -1 0
3 9 -1 0
4 10 3 -1 0
3 0
4 0
7 1 0
7 -1 0
7 0
11 0
11 0
7 1 0
7 -1 0
7 0
15 1 0
15 -1 0
15 0
1 15 0
-1 15 0
15 0
12 0
12 0
12 0
12 0
12 0
12 0
12 0
12 0
12 0
12 0
11 1 0
11 12 1 0
12 1 0
12 -1 0
11 -1 0
11 12 -1 0
11 0
12 0
12 1 0
12 -1 0
12 0
11 0
11 0
11 0
11 0
11 0
11 0
11 0
11 0
11 0
11 0
11 0
11 0
15 0
15 0
-14 -13 -16 0
-13 -16 -5 0
-13 -2 -16 -5 0
15 0
15 0
1 12 0
-1 12 0
12 0
7 1 0
7 -1 0
7 0
3 0
4 0
6 0
2 0
3 9 6 0
6 0
3 9 4 0
4 10 0
6 4 0
2 8 0
6 3 0
4 10 3 6 0
4 3 6 9 0
4 10 3 0
4 10 6 0
3 9 0
-1 0
2 0
6 0
4 0
3 0
15 0
12 0
12 0
7 0
7 0
7 0
7 0
7 0
7 0
7 0
7 0
7 0
7 0
13 0
4 0
3 0
4 10 0
3 0
4 10 3 0
4 0
3 9 4 0
13 0
13 0
3 9 0
3 0
4 10 3 0
4 0
3 9 4 0
13 0
13 0
4 10 0
3 9 0
4 10 3 0
13 0
4 10 0
3 0
3 9 4 0
13 0
3 9 0
4 0
13 0
4 10 3 0
3 9 4 0
4 10 0
13 0
3 9 0
4 0
3 0
3 0
4 0
13 0
6 0
3 0
4 0
2 0
6 4 0
4 10 6 0
2 8 0
6 3 0
4 10 3 0
4 10 3 6 0
3 9 4 0
6 0
4 10 0
3 9 0
3 9 6 0
4 3 6 9 0
-1 0
3 0
6 0
4 0
2 0
15 0
15 0
15 0
15 0
15 0
15 0
15 0
15 0
15 0
15 0
15 0
15 0
1 11 0
-1 11 0
11 0
12 0
12 0
12 0
12 0
12 0
12 0
12 0
12 0
12 0
12 0
13 0
13 0
1 15 0
-1 15 0
15 0
11 0
11 0
13 1 0
13 -1 0
13 0
1 12 0
-1 12 0
12 0
12 7 1 0
7 1 0
12 1 0
7 -1 0
12 7 -1 0
12 -1 0
7 0
12 0
12 0
12 0
12 0
12 0
12 0
12 0
12 0
12 0
-10 1 0
-4 -10 0
1 -4 12 0
-1 -10 12 0
-1 -4 12 0
-10 12 0
-4 12 0
13 0
13 0
13 0
13 0
13 0
13 0
13 -1 0
13 0
13 0
13 0
13 0
12 0
12 0
12 0
12 0
12 0
12 0
12 0
12 0
12 0
12 0
12 0
12 0
12 0
12 0
12 0
12 0
12 0
3 -9 -10 0
4 -9 -10 0
-3 4 -10 0
-4 3 -9 0
3 9 0
3 0
4 0
4 10 3 0
4 10 0
3 9 4 0
3 9 4 0
4 0
4 10 0
3 9 0
4 10 3 0
3 0
3 9 0
4 10 3 0
4 0
3 9 4 0
3 0
4 10 0
3 9 0
4 0
3 9 4 0
4 10 3 0
4 10 0
3 0
3 0
4 0
1 12 0
-1 12 0
12 0
1 11 0
-1 11 0
11 0
3 0
4 0
6 0
4 10 0
3 9 6 0
4 0
4 3 6 9 0
3 9 4 0
6 4 0
6 0
4 10 6 0
4 10 3 0
3 0
6 0
4 10 3 6 0
6 3 0
3 9 0
4 10 3 6 0
4 3 6 9 0
6 0
3 9 4 0
6 0
6 3 0
3 9 6 0
4 0
3 9 0
4 10 6 0
3 0
4 10 3 0
6 4 0
4 10 0
6 3 0
6 4 0
6 0
3 9 4 0
3 0
4 10 3 0
3 9 6 0
4 10 0
3 9 0
4 10 3 6 0
4 0
4 10 6 0
6 0
4 3 6 9 0
4 10 3 0
3 0
4 3 6 9 0
6 4 0
4 10 3 6 0
4 0
3 9 4 0
4 10 6 0
4 10 0
6 0
6 0
3 9 0
3 9 6 0
6 3 0
5 14 0
5 0
5 0
7 0
7 0
13 1 0
13 -1 0
13 0
7 0
7 0
7 0
7 0
7 0
7 0
7 0
7 0
7 0
-14 -16 0
-16 -5 0
-13 -16 -5 0
-14 -13 -16 0
-13 -2 -16 -5 0
-13 -2 -16 -5 0
1 7 0
-1 7 0
7 0
13 0
15 0
15 0
15 0
13 0
13 0
15 0
13 0
13 0
15 0
15 0
13 0
13 0
15 0
15 0
15 0
13 0
13 0
15 0
13 0
11 0
11 0
1 11 0
-1 11 0
11 0
13 1 0
13 -1 0
13 0
1 15 0
-1 15 0
15 0
15 0
15 0
1 7 0
-1 7 0
7 0
7 1 0
7 -1 0
7 0
-13 -8 -16 -5 0
-14 -13 -8 -16 0
-13 -2 -16 -5 0
-14 -13 -2 -16 0
12 0
12 0
11 0
11 0
11 12 1 0
12 1 0
11 1 0
11 0
11 0
12 0
12 0
12 -1 0
11 12 -1 0
11 -1 0
11 0
12 0
-13 -16 -5 0
-14 -13 -16 0
12 0
12 0
12 0
12 0
12 0
12 0
12 0
12 0
12 0
11 0
11 0
11 0
11 0
11 0
11 -1 0
11 0
13 0
13 0
13 0
13 0
1 7 0
-1 7 0
7 0
11 0
11 0
11 0
11 0
11 0
11 0
4 0
3 0
6 0
6 0
4 10 0
4 10 6 0
4 3 6 9 0
4 10 3 0
6 3 0
4 0
6 0
3 0
3 9 6 0
6 4 0
3 9 0
3 9 4 0
4 10 3 6 0
6 0
3 9 6 0
6 4 0
3 0
3 9 4 0
4 10 3 6 0
4 10 6 0
3 9 0
4 10 0
6 0
4 0
4 3 6 9 0
4 10 3 0
6 3 0
4 10 6 0
6 4 0
4 10 3 0
4 0
3 0
6 0
3 9 4 0
6 3 0
3 9 0
4 3 6 9 0
4 10 3 6 0
3 9 6 0
4 10 0
6 0
6 4 0
6 3 0
3 9 6 0
4 10 3 6 0
4 0
4 10 0
6 0
4 10 3 0
4 10 6 0
3 9 4 0
6 0
4 3 6 9 0
3 0
3 9 0
11 0
11 0
11 0
11 0
11 0
11 0
11 0
11 0
11 0
1 15 0
-1 15 0
15 0
15 0
15 0
15 0
15 0
15 0
15 0
15 0
15 0
15 0
15 0
15 -1 0
15 0
6 0
3 0
4 0
11 0
4 10 3 0
3 0
4 0
4 10 3 6 0
11 0
11 0
6 0
3 9 6 0
4 10 0
6 0
6 4 0
3 9 4 0
6 3 0
3 9 0
4 10 6 0
4 3 6 9 0
4 3 6 9 0
6 3 0
6 0
3 9 6 0
6 4 0
4 10 3 6 0
3 0
4 10 3 0
6 0
3 9 0
11 0
4 0
4 10 0
11 0
4 10 6 0
3 9 4 0
6 3 0
3 9 6 0
4 0
6 4 0
4 10 6 0
4 3 6 9 0
4 10 0
6 0
3 0
6 0
11 0
11 0
3 9 0
4 10 3 6 0
4 10 3 0
3 9 4 0
4 3 6 9 0
6 3 0
4 10 0
4 10 6 0
4 0
3 9 4 0
6 0
3 0
4 10 3 0
4 10 3 6 0
3 9 0
11 0
11 0
6 0
6 4 0
3 9 6 0
13 0
13 0
13 0
13 0
13 0
13 0
13 0
13 0
13 0
13 0
13 1 0
13 -1 0
13 0
15 0
15 0
15 1 0
15 -1 0
15 0
1 7 0
-1 7 0
7 0
15 1 0
15 -1 0
15 0
7 0
7 0
7 0
7 0
7 0
7 0
7 0
7 0
7 0
7 0
7 0
7 0
7 0
7 0
7 0
7 0
7 0
7 0
3 0
3 9 0
6 0
4 10 0
6 0
3 9 4 0
4 10 3 0
4 0
3 0
6 0
4 0
7 0
7 0
7 0
7 0
7 0
7 0
7 0
7 0
7 0
7 0
-3 4 -10 0
4 -9 -10 0
3 -9 -10 0
-4 3 -9 0
4 3 1 9 0
4 10 3 1 0
4 10 1 0
3 9 1 0
4 10 -1 0
4 10 3 -1 0
3 9 -1 0
4 3 -1 9 0
3 0
4 0
12 0
12 0
11 0
11 0
11 0
15 0
15 0
15 0
15 0
15 0
15 0
15 0
15 0
15 0
1 12 0
-1 12 0
12 0
7 0
7 0
7 0
7 0
7 0
7 0
7 0
7 0
7 0
4 3 6 1 9 0
4 10 6 1 0
4 10 3 6 1 0
6 1 0
3 6 1 9 0
3 9 1 0
4 10 3 1 0
3 6 1 0
4 10 1 0
4 6 1 0
4 3 1 9 0
3 -1 0
4 -1 0
6 -1 0
3 9 4 0
4 10 3 0
3 0
6 3 0
6 4 0
3 9 0
4 10 3 0
4 10 3 6 0
4 10 0
4 3 6 9 0
3 9 6 0
6 0
4 10 0
3 9 0
6 0
4 0
6 0
4 10 6 0
3 9 4 0
3 4 0
6 0
4 0
3 0
6 4 0
6 3 0
12 -8 0
12 2 0
12 0
12 0
12 -8 0
12 2 0
12 0
12 0
6 0
3 9 4 0
4 10 3 0
6 0
3 9 0
3 0
4 0
4 10 0
3 0
6 0
4 0
7 1 0
7 -1 0
7 0
11 0
11 0
12 0
12 0
12 0
12 0
11 0
12 0
11 0
11 0
12 0
12 0
11 0
11 0
11 0
11 0
12 0
12 0
12 0
11 0
12 0
11 0
11 0
12 0
12 0
12 0
11 0
12 0
11 0
11 0
11 0
12 0
12 0
11 0
11 0
12 0
12 0
12 0
11 0
11 0
11 0
12 0
12 0
11 0
11 0
12 0
12 0
11 0
11 0
12 0
7 0
7 0
7 0
7 0
7 0
12 0
7 0
7 0
7 0
7 0
11 0
11 0
7 0
7 0
7 0
11 0
7 0
7 0
7 0
7 0
12 0
12 0
7 0
7 0
7 0
12 0
7 0
12 0
7 0
7 0
7 0
12 0
7 0
7 0
7 0
7 0
7 0
12 0
7 0
7 0
11 0
12 0
7 0
12 0
7 0
7 0
7 0
7 0
11 0
12 0
7 0
7 0
7 0
7 0
7 0
7 0
7 0
11 0
7 0
7 0
12 0
7 0
11 0
7 0
7 0
7 0
12 0
7 0
7 0
12 0
7 0
11 0
7 0
7 0
7 0
7 0
11 0
12 0
7 0
7 0
7 0
7 0
7 0
7 0
7 0
7 0
12 0
7 0
7 0
7 0
7 0
7 0
7 0
7 0
7 0
7 0
7 0
11 0
12 0
7 0
7 0
12 0
7 0
7 0
7 0
7 0
7 0
7 0
7 0
12 0
7 0
7 0
12 0
12 0
7 0
11 0
11 0
7 0
7 0
7 0
7 0
7 0
12 0
7 0
7 0
7 0
7 0
7 0
11 0
7 0
7 0
12 0
11 0
7 0
7 0
7 0
7 0
7 0
7 0
7 0
7 0
7 0
11 0
7 0
7 0
7 0
12 0
12 0
7 0
12 0
12 0
12 0
12 0
12 0
12 0
12 0
12 0
12 0
-13 -2 -16 -5 0
-13 -16 -5 0
-14 -13 -16 0
1 15 0
-1 15 0
15 0
2 8 0
2 8 0
12 0
12 0
15 0
15 0
15 0
15 0
15 0
15 0
7 0
7 0
7 0
7 0
7 0
7 0
7 0
7 0
7 0
7 0
7 0
7 0
7 0
12 0
12 0
1 15 0
-1 15 0
15 0
-2 -16 -5 0
-8 -16 -5 0
-2 -16 -5 0
-14 -8 -16 0
-14 -2 -16 0
-2 -11 -16 -5 0
-14 -2 -16 0
-14 -8 -16 0
-2 -16 -5 0
-8 -16 -5 0
6 0
6 3 0
4 3 6 9 0
6 0
3 9 4 0
3 0
4 10 6 0
4 10 3 0
3 9 0
4 10 0
3 9 6 0
4 0
6 4 0
4 10 3 6 0
3 0
4 0
6 0
1 12 0
-1 12 0
12 0
4 -9 -10 0
-4 3 -9 0
3 -9 -10 0
-3 4 -10 0
4 10 3 1 0
3 9 1 0
4 10 1 0
4 3 1 9 0
3 9 -1 0
4 10 3 -1 0
4 10 -1 0
4 3 -1 9 0
3 0
4 0
15 0
15 0
15 0
15 0
1 15 0
-1 15 0
15 0
15 0
15 0
7 1 0
7 -1 0
7 0
15 0
12 0
11 12 0
12 0
11 0
12 0
12 0
11 0
11 0
12 0
11 12 0
12 0
11 0
12 0
12 0
11 0
11 0
13 1 0
13 -1 0
13 0
4 10 0
3 9 4 0
4 10 3 0
3 9 0
3 9 0
4 10 3 0
3 9 4 0
4 10 0
3 -1 0
4 -1 0
6 4 -1 0
3 -1 0
4 3 -1 0
4 -1 0
6 3 -1 0
4 10 0
3 0
3 9 0
4 10 0
3 9 4 0
4 10 3 0
4 0
3 9 0
3 0
4 0
4 0
3 0
15 0
15 0
11 0
11 0
11 0
15 0
11 0
11 0
11 0
11 0
11 0
11 0
11 0
11 0
15 0
11 0
11 0
11 0
15 0
11 0
15 0
11 0
11 0
11 0
11 0
11 0
11 0
11 0
11 0
11 0
15 0
11 1 0
11 12 1 0
12 1 0
12 -1 0
11 -1 0
11 12 -1 0
12 0
11 0
1 12 0
-1 12 0
12 0
15 1 0
15 -1 0
15 0
1 7 0
-1 7 0
7 0
12 1 0
12 -1 0
12 0
11 1 0
11 -1 0
11 0
11 0
11 0
11 0
11 0
11 0
11 0
11 0
11 0
11 0
11 0
12 0
12 0
12 0
12 0
12 0
12 0
12 0
12 0
12 0
7 0
7 0
7 0
7 0
7 0
7 0
7 0
7 0
7 0
7 0
7 0
7 0
7 0
13 0
13 0
13 0
13 0
13 0
13 0
13 0
13 0
13 0
13 0
15 0
15 0
13 0
5 0
13 0
5 13 14 0
5 13 0
5 0
5 0
13 0
5 14 0
13 0
5 13 14 0
5 13 0
13 0
5 0
13 0
5 0
5 14 0
13 0
13 0
5 0
5 13 0
13 0
5 14 0
13 0
5 0
5 13 14 0
5 0
5 13 14 0
5 14 0
13 0
5 0
5 13 0
13 0
13 0
5 0
13 0
7 0
7 0
7 0
7 0
7 0
7 0
7 0
7 0
7 0
15 0
15 0
-13 -16 -5 0
-14 -13 -16 0
15 1 0
15 -1 0
15 0
3 9 0
4 3 9 0
4 10 0
13 0
3 9 4 0
3 0
4 10 0
4 10 3 0
4 10 3 0
4 10 3 0
4 10 0
4 10 3 0
3 9 4 0
3 9 0
4 0
3 9 0
4 10 0
4 10 0
13 0
3 9 0
4 10 3 0
3 9 4 0
3 9 0
3 9 4 0
3 0
3 9 4 0
3 9 4 0
3 9 0
13 0
3 9 0
3 9 0
4 10 0
3 9 4 0
3 9 0
3 9 4 0
3 9 0
4 0
3 9 0
4 3 9 0
13 0
4 10 0
4 10 0
4 0
4 10 3 0
4 10 3 0
4 10 3 0
4 10 3 0
4 10 0
3 0
4 10 0
4 10 3 0
4 10 0
1 12 0
-1 12 0
12 0
1 7 0
-1 7 0
7 0
15 0
15 0
11 0
11 0
11 0
11 0
11 0
11 0
11 0
11 0
11 0
15 0
15 0
15 0
15 0
15 0
15 0
15 0
15 -1 0
15 0
1 12 0
1 11 0
-1 12 0
-1 11 0
12 0
11 0
1 15 0
-1 15 0
15 0
11 0
7 1 0
7 -1 0
7 0
7 0
7 0
7 0
7 0
7 0
7 0
7 0
7 0
7 0
7 0
7 0
7 0
7 0
7 0
7 0
7 0
7 0
11 1 0
11 -1 0
11 0
4 10 0
6 0
4 0
4 10 3 0
3 0
6 0
3 9 4 0
3 9 0
3 0
4 0
6 0
12 1 0
11 1 0
11 12 1 0
11 12 -1 0
11 -1 0
12 -1 0
12 0
11 0
-3 4 -10 0
3 -9 -10 0
-4 3 -9 0
4 -9 -10 0
4 3 1 9 0
4 10 1 0
4 10 3 1 0
3 9 1 0
4 3 -1 9 0
3 9 -1 0
4 10 3 -1 0
4 10 -1 0
3 0
4 0
7 1 0
7 -1 0
7 0
15 0
15 0
15 1 0
15 -1 0
15 0
15 0
15 0
15 0
15 0
15 0
15 0
15 0
15 0
15 0
15 0
12 0
12 0
15 0
12 0
15 0
12 0
15 0
15 0
12 0
15 0
12 0
15 0
12 0
15 0
12 0
15 0
12 0
12 0
12 0
12 0
12 0
12 0
12 0
12 0
12 0
12 0
1 7 0
-1 7 0
7 0
1 12 0
1 7 0
-1 12 0
-1 7 0
12 0
7 0
6 0
6 0
4 10 0
3 9 4 0
3 9 0
4 10 3 0
3 0
4 0
6 0
3 0
4 0
12 0
2 0
2 8 0
2 8 0
12 0
2 0
12 0
2 8 0
2 0
2 0
2 8 0
12 0
1 7 0
-1 7 0
7 0
15 1 0
15 -1 0
15 0
3 -9 -10 0
4 -9 -10 0
-3 4 -10 0
-4 3 -9 0
4 10 0
3 9 0
3 0
4 0
4 10 3 0
3 9 4 0
4 10 3 0
4 0
3 9 4 0
4 10 0
3 0
3 9 0
3 9 0
4 10 0
4 0
4 10 3 0
3 9 4 0
3 0
3 9 0
4 10 0
4 10 3 0
4 0
3 9 4 0
3 0
3 0
4 0
3 0
4 0
12 0
1 15 0
-1 15 0
15 0
7 0
7 0
7 0
7 0
7 0
7 0
7 0
7 0
7 0
7 0
7 0
7 0
7 0
7 0
7 0
7 0
7 0
7 0
7 0
7 0
15 1 0
15 -1 0
15 0
3 0
6 0
4 10 0
3 9 0
4 0
4 10 3 0
6 0
3 9 4 0
4 0
3 0
6 0
4 0
3 0
3 9 0
4 10 3 0
4 10 0
3 0
4 0
3 9 4 0
3 9 0
4 10 0
4 0
4 10 3 0
3 9 4 0
3 0
4 10 0
4 10 3 0
3 0
3 9 0
4 0
3 9 4 0
3 0
3 9 0
3 9 4 0
4 0
4 10 0
4 10 3 0
3 0
4 0
3 0
13 0
4 0
4 0
3 0
13 0
13 0
3 9 4 0
3 9 0
4 10 0
4 10 3 0
3 9 0
3 0
4 0
4 10 3 0
3 9 4 0
13 0
13 0
4 10 0
4 10 3 0
3 9 0
3 0
13 0
4 0
3 9 4 0
13 0
4 10 0
4 10 3 0
13 0
3 9 0
3 0
3 9 4 0
4 0
4 10 0
13 0
3 0
4 0
13 0
7 0
7 0
7 0
7 0
7 0
7 0
7 0
7 0
7 0
11 0
11 0
7 0
12 0
7 0
12 0
11 0
11 0
11 0
11 0
11 0
11 0
11 0
11 -1 0
11 0
1 15 0
-1 15 0
15 0
-14 -2 -16 0
-8 -16 -5 0
-14 -8 -16 0
-2 -11 -16 -5 0
-2 -16 -5 0
-2 -16 -5 0
-2 -16 -5 0
-14 -8 -16 0
-14 -2 -16 0
-8 -16 -5 0
13 0
13 0
13 0
13 0
15 0
15 0
15 0
15 0
15 0
15 0
15 -1 0
15 0
15 0
15 0
15 0
15 0
12 1 0
12 -1 0
12 0
1 12 0
1 11 0
-1 12 0
-1 11 0
12 0
11 0
1 12 0
-1 12 0
12 0
12 11 0
12 0
11 0
12 0
12 0
7 0
7 0
7 0
7 0
7 0
7 0
7 0
7 0
7 0
-2 -16 -5 0
-14 -8 -16 0
-2 -11 -16 -5 0
-8 -16 -5 0
-14 -2 -16 0
-2 -16 -5 0
-8 -16 -5 0
-14 -2 -16 0
-14 -8 -16 0
-2 -16 -5 0
1 11 0
-1 11 0
11 0
15 1 0
15 -1 0
15 0
1 12 0
1 11 0
-1 12 0
-1 11 0
12 0
11 0
4 10 0
6 0
3 0
3 9 0
4 10 3 0
4 0
6 0
3 9 4 0
4 0
6 0
3 0
15 0
15 0
15 0
15 0
15 0
15 0
15 0
15 0
15 0
15 0
15 0
15 0
15 0
15 0
15 0
15 0
15 0
15 0
4 10 0
4 10 3 0
6 0
3 0
3 9 4 0
3 9 0
4 0
6 0
5 14 0
5 14 0
13 1 0
13 -1 0
13 0
12 0
11 0
11 12 0
12 0
11 0
12 0
11 0
11 12 0
12 0
11 0
7 1 0
7 -1 0
7 0
4 0
6 0
3 0
2 0
4 3 6 9 0
6 0
4 10 3 0
6 4 0
3 9 4 0
3 9 0
2 8 0
6 3 0
4 10 6 0
4 10 0
3 9 6 0
4 10 3 6 0
-1 0
4 0
2 0
3 0
6 0
11 0
11 0
12 0
12 0
1 11 0
-1 11 0
11 0
15 0
15 0
15 0
15 0
15 0
15 0
15 0
15 -1 0
15 0
7 0
7 0
7 0
7 0
7 0
7 0
7 0
7 0
7 0
13 1 0
13 -1 0
13 0
5 14 0
2 8 0
2 0
11 0
11 0
11 0
5 14 0
2 0
11 0
2 8 0
2 8 0
5 14 0
11 0
11 0
2 0
2 8 0
11 0
11 0
5 14 0
2 0
15 1 0
15 -1 0
15 0
7 0
5 0
5 0
7 0
7 0
5 14 0
7 0
7 0
7 0
5 14 0
7 0
5 0
7 0
5 14 0
5 0
7 0
7 0
7 0
5 0
7 0
7 0
5 14 0
7 0
5 0
1 7 0
-1 7 0
7 0
1 12 0
-1 12 0
12 0
3 -9 -10 0
-3 4 -10 0
4 -9 -10 0
-4 3 -9 0
4 3 1 9 0
4 10 1 0
4 10 3 1 0
3 9 1 0
4 10 3 -1 0
4 10 -1 0
4 3 -1 9 0
3 9 -1 0
3 0
4 0
12 0
12 0
13 1 0
13 -1 0
13 0
12 0
12 0
11 1 0
11 -1 0
11 0
12 1 0
12 -1 0
12 0
11 1 0
11 -1 0
11 0
5 0
5 14 0
5 0
7 1 0
7 -1 0
7 0
7 0
7 0
7 0
7 0
3 9 0
3 0
4 10 0
4 10 3 0
3 9 4 0
4 0
3 9 0
3 0
4 10 0
4 10 3 0
3 9 4 0
4 0
11 1 0
11 -1 0
11 0
6 3 0
4 0
4 10 3 6 0
4 10 3 0
4 10 6 0
3 9 6 0
6 0
4 10 0
3 9 4 0
6 4 0
3 0
4 3 6 9 0
3 9 0
6 0
11 1 0
11 -1 0
11 0
11 0
11 0
13 0
5 0
5 0
5 0
13 0
5 14 0
13 0
5 13 0
5 13 14 0
13 0
5 13 14 0
5 14 0
5 13 0
13 0
13 0
13 0
5 0
5 0
5 0
5 13 14 0
5 13 0
13 0
13 0
5 14 0
13 0
5 0
13 0
5 13 0
5 0
5 14 0
13 0
5 0
13 0
5 13 14 0
13 0
5 0
3 9 0
4 10 0
6 0
3 0
4 10 3 0
3 9 4 0
6 0
4 0
6 0
3 0
4 0
1 11 0
-1 11 0
-1 11 0
15 0
15 0
15 0
15 0
15 0
15 0
15 0
15 0
15 0
15 0
15 0
15 0
15 0
15 0
15 0
15 0
15 0
15 0
11 0
11 0
12 0
12 0
15 0
11 0
11 0
12 0
12 0
15 0
12 0
11 0
11 0
11 0
15 0
12 0
12 0
11 0
12 0
15 0
13 1 0
15 13 1 0
13 15 1 0
15 1 0
15 -1 0
15 13 -1 0
13 15 -1 0
13 -1 0
15 0
13 0
12 0
12 0
12 0
12 0
12 0
12 0
12 0
12 0
12 0
15 1 0
15 -1 0
15 0
11 1 0
11 12 1 0
12 1 0
11 12 -1 0
12 -1 0
11 -1 0
11 0
12 0
15 1 0
15 -1 0
15 0
15 0
15 0
15 0
15 0
15 0
15 0
15 0
15 0
15 0
15 0
15 0
15 0
15 0
15 0
15 0
15 0
15 0
15 0
4 10 3 0
6 0
4 0
3 9 4 0
4 10 0
6 0
3 9 0
3 0
4 0
6 0
3 0
4 10 3 0
3 0
6 0
3 9 0
4 0
3 9 4 0
4 10 0
6 0
6 0
3 0
4 0
4 0
6 0
3 0
3 9 4 0
4 10 0
3 9 0
6 0
3 0
6 0
4 0
4 10 3 0
3 0
3 9 0
3 9 4 0
6 0
4 0
4 10 0
6 0
4 10 3 0
6 0
4 10 3 0
3 9 4 0
3 0
4 0
3 9 0
4 10 0
6 0
4 10 0
3 9 0
3 0
6 0
3 9 4 0
6 0
4 10 3 0
4 0
1 11 0
-1 11 0
11 0
15 0
15 0
11 1 0
11 -1 0
11 0
-13 -16 -5 0
-13 -2 -16 -5 0
-14 -13 -16 0
15 1 0
15 -1 0
15 0
15 0
1 7 0
-1 7 0
7 0
6 0
3 0
4 0
2 0
6 0
4 10 3 0
4 10 0
4 10 6 0
4 3 6 9 0
3 9 6 0
4 10 3 6 0
6 3 0
6 4 0
3 9 0
2 8 0
3 9 4 0
-1 0
2 0
3 0
4 0
6 0
-13 -2 -16 -5 0
-14 -13 -8 -16 0
-13 -8 -16 -5 0
-14 -13 -2 -16 0
7 0
7 0
7 0
7 0
7 0
7 0
7 0
7 0
7 0
15 0
15 0
15 0
15 0
1 12 0
1 11 0
-1 12 0
-1 11 0
12 0
11 0
12 0
12 0
12 0
12 0
12 0
12 0
15 0
15 0
15 0
15 0
15 0
15 0
1 11 0
-1 11 0
11 0
5 0
13 0
13 0
5 0
5 13 14 0
5 13 0
13 0
5 0
5 14 0
13 0
5 13 14 0
13 0
13 0
5 13 0
13 0
5 14 0
5 0
5 0
13 0
5 14 0
13 0
5 0
5 0
5 13 0
13 0
5 13 14 0
5 14 0
5 13 0
13 0
5 13 14 0
13 0
5 0
13 0
5 0
5 13 0
13 0
13 0
5 13 14 0
5 0
5 0
5 14 0
13 0
13 0
5 0
12 0
11 12 0
12 0
7 0
7 0
7 0
7 0
7 0
7 0
7 0
7 0
7 0
1 11 0
-1 11 0
11 0
5 0
13 0
5 13 0
5 13 14 0
5 0
13 0
13 0
5 14 0
13 0
5 0
5 0
13 0
5 14 0
5 13 14 0
13 0
5 13 0
13 0
5 0
5 0
13 0
5 14 0
5 13 14 0
13 0
5 13 0
11 0
2 0
2 0
5 0
2 8 0
2 0
5 14 0
2 0
5 14 0
5 0
2 0
2 0
2 8 0
2 0
2 0
2 0
2 8 0
5 14 0
2 0
2 0
5 0
2 0
2 8 0
2 0
2 0
2 0
5 14 0
1 12 0
-1 12 0
12 0
3 9 0
3 0
3 9 0
3 0
15 0
15 0
12 13 1 0
13 1 0
12 1 0
13 12 1 0
12 13 -1 0
12 -1 0
13 -1 0
13 12 -1 0
13 0
12 0
-13 -8 -16 -5 0
-14 -13 -2 -16 0
-13 -2 -16 -5 0
-14 -13 -8 -16 0
6 0
3 9 4 0
4 0
3 9 0
4 10 3 0
4 10 0
6 0
3 0
3 0
6 0
4 0
15 0
15 0
15 0
15 0
15 0
15 0
15 0
15 0
15 0
15 0
15 0
15 0
15 0
15 0
15 0
11 0
11 0
12 0
11 0
12 0
4 0
3 0
6 0
3 9 4 0
3 0
4 3 6 9 0
6 0
4 10 0
6 0
4 10 6 0
6 4 0
4 0
4 10 3 6 0
3 9 6 0
3 9 0
4 10 3 0
6 3 0
6 0
6 3 0
4 3 6 9 0
4 10 3 0
3 9 0
3 0
3 9 4 0
4 10 3 6 0
4 0
4 10 0
4 10 6 0
6 4 0
3 9 6 0
6 0
3 9 4 0
4 10 3 0
6 0
6 4 0
6 3 0
3 9 6 0
4 10 6 0
3 0
4 3 6 9 0
6 0
4 0
3 9 0
4 10 3 6 0
4 10 0
6 3 0
4 10 3 0
6 0
4 10 3 6 0
3 9 6 0
3 9 4 0
4 0
3 9 0
6 0
4 10 6 0
6 4 0
3 0
4 10 0
4 3 6 9 0
1 12 0
-1 12 0
12 0
7 0
7 0
7 0
7 0
12 0
12 0
11 0
11 0
11 0
11 0
12 0
11 0
11 0
11 0
11 0
11 0
11 0
12 0
7 0
12 0
11 0
11 0
11 0
12 0
11 0
12 0
11 0
11 0
11 0
12 0
12 0
12 0
11 0
11 0
11 0
11 0
11 0
12 0
11 0
11 0
11 0
11 0
11 0
12 0
12 0
11 0
11 0
11 0
11 0
12 0
11 0
11 0
11 0
11 0
11 0
11 0
12 0
7 0
12 0
11 0
11 0
11 0
12 0
11 0
12 0
11 0
11 0
11 0
12 0
12 0
12 0
11 0
11 0
11 0
11 0
11 0
12 0
11 0
11 0
11 0
11 0
11 0
5 0
11 0
5 0
11 0
5 14 0
11 0
11 0
5 14 0
11 0
5 0
11 0
11 0
5 14 0
5 0
11 0
11 0
11 0
11 0
5 0
11 0
11 0
5 14 0
1 15 0
-1 15 0
15 0
3 0
4 10 3 0
4 10 0
4 0
3 9 0
6 0
6 0
3 9 4 0
-4 3 -9 0
-3 4 -10 0
3 -9 -10 0
4 -9 -10 0
4 0
3 9 4 0
4 10 0
3 0
4 10 3 0
3 9 0
3 9 4 0
3 9 0
4 10 0
3 0
4 0
4 10 3 0
4 0
3 9 4 0
4 10 3 0
3 0
3 9 0
4 10 0
4 0
4 10 0
3 9 0
3 0
4 10 3 0
3 9 4 0
3 0
4 0
15 0
15 0
15 0
15 0
7 0
7 0
7 0
7 0
7 0
7 0
7 0
7 0
12 0
12 0
1 11 0
-1 11 0
11 0
4 0
3 0
6 0
4 3 6 9 0
3 9 6 0
3 9 0
4 10 6 0
3 9 4 0
3 0
4 10 3 6 0
6 0
6 4 0
4 10 0
6 0
6 3 0
4 10 3 0
4 0
4 10 0
4 10 3 0
4 0
4 10 3 6 0
4 10 6 0
3 9 0
6 3 0
3 9 6 0
3 9 4 0
3 0
6 0
6 4 0
6 0
4 3 6 9 0
6 0
6 4 0
4 3 6 9 0
4 10 6 0
3 9 4 0
4 0
3 0
6 3 0
4 10 0
6 0
4 10 3 0
3 9 6 0
4 10 3 6 0
3 9 0
4 10 3 6 0
3 0
4 3 6 9 0
4 10 0
3 9 4 0
6 4 0
4 10 3 0
6 3 0
3 9 0
3 9 6 0
6 0
6 0
4 0
4 10 6 0
4 0
3 0
6 0
15 0
15 0
12 0
12 0
15 0
15 0
12 0
12 0
12 0
15 0
15 0
12 0
15 0
12 0
12 0
15 0
15 0
12 0
7 1 0
7 -1 0
7 0
15 0
15 0
7 0
7 0
7 0
7 0
7 0
7 0
7 0
7 0
7 0
12 1 0
12 -1 0
12 0
15 0
15 0
11 0
11 0
12 0
12 0
7 0
7 0
7 0
7 0
7 0
7 0
7 0
7 0
7 0
15 1 0
15 -1 0
15 0
1 11 0
-1 11 0
11 0
13 1 0
13 -1 0
13 0
-9 3 0
-9 0
-9 0
3 0
3 -9 0
3 -9 0
3 9 0
3 0
-9 0
3 0
3 -9 0
3 -9 0
3 0
3 0
3 -9 0
3 0
3 9 0
3 -9 0
3 -9 0
3 -9 0
-9 0
3 0
-9 0
-9 3 0
3 -9 0
3 -9 0
3 0
3 0
-9 0
3 0
3 0
3 9 0
3 -9 0
3 -9 0
3 -9 0
-9 0
3 0
-9 0
-9 3 0
3 -9 0
3 -9 0
3 0
3 0
-9 0
3 0
15 0
15 0
15 0
15 0
15 0
15 0
15 0
15 0
15 0
15 0
15 0
15 0
7 1 0
7 -1 0
7 0
2 8 0
3 9 6 0
6 3 0
6 4 0
4 10 3 0
6 0
4 10 6 0
4 10 3 6 0
3 9 4 0
4 3 6 9 0
3 9 0
4 10 0
3 9 0
6 3 0
3 9 4 0
3 9 6 0
4 10 3 0
2 8 0
6 4 0
4 10 0
4 3 6 9 0
4 10 6 0
6 0
4 10 3 6 0
6 0
4 10 6 0
4 3 6 9 0
6 3 0
6 4 0
4 10 3 0
3 9 6 0
4 10 0
4 10 3 6 0
3 9 0
3 9 4 0
2 8 0
4 10 0
3 9 6 0
6 0
3 9 0
6 4 0
2 8 0
4 10 3 6 0
4 3 6 9 0
4 10 3 0
6 3 0
4 10 6 0
3 9 4 0
13 0
5 0
5 13 0
13 0
13 0
13 0
5 14 0
5 0
5 13 14 0
5 0
5 0
13 0
5 13 14 0
5 14 0
5 0
5 13 0
13 0
13 0
13 0
5 0
5 13 14 0
5 13 0
5 0
13 0
5 14 0
13 0
5 14 0
5 13 14 0
13 0
5 13 0
5 0
13 0
5 0
13 0
5 0
13 0
15 0
15 0
7 1 0
7 -1 0
7 0
7 0
7 0
7 0
7 0
7 0
7 0
7 0
7 0
7 0
12 0
12 0
12 0
12 0
11 0
5 0
5 0
5 14 0
11 0
11 0
11 0
11 0
5 14 0
11 0
11 0
5 0
11 0
11 0
11 0
5 0
5 14 0
11 0
11 0
5 0
11 0
5 14 0
12 0
12 0
7 0
12 0
7 0
7 0
7 0
12 0
12 0
7 0
7 0
12 0
7 -1 0
12 -1 0
7 0
12 0
7 0
12 0
7 0
12 0
-14 -13 -16 0
-13 -16 -5 0
15 0
15 0
15 0
15 0
11 1 0
11 -1 0
11 0
7 0
7 0
7 1 0
7 -1 0
7 0
12 0
12 0
1 12 0
-1 12 0
12 0
13 0
13 0
13 0
13 0
13 0
13 0
13 0
13 0
12 0
11 0
11 12 0
11 0
12 0
12 0
11 0
12 0
11 0
11 0
12 0
11 12 0
12 0
11 0
12 0
11 0
11 0
11 0
12 0
11 12 0
12 0
11 0
12 0
12 0
12 0
11 0
11 0
11 12 0
12 0
11 0
11 0
12 0
12 0
12 0
11 12 0
11 0
11 0
12 0
11 0
11 12 0
11 0
12 0
11 0
12 0
12 0
11 0
7 0
7 0
2 8 0
7 0
12 0
2 0
2 0
7 0
12 0
7 0
7 0
2 8 0
7 0
7 0
12 0
7 0
2 0
2 8 0
7 0
2 0
12 0
7 0
7 0
2 8 0
11 0
11 0
11 0
1 11 0
-1 11 0
11 0
1 12 0
-1 12 0
12 0
1 12 0
-1 12 0
12 0
15 1 0
15 -1 0
15 0
12 0
11 0
12 0
7 0
7 0
7 0
7 0
7 0
7 0
7 0
7 0
7 0
7 0
7 0
7 0
7 0
7 0
1 7 0
-1 7 0
7 0
1 7 0
-1 7 0
7 0
12 0
12 0
11 0
11 0
11 0
11 0
11 0
11 0
11 0
11 0
11 0
11 0
11 0
11 0
11 0
11 0
11 0
11 0
11 0
4 10 0
3 9 4 0
3 9 0
4 10 3 0
4 10 0
3 9 4 0
3 9 0
4 10 3 0
7 0
7 0
7 0
7 0
13 1 0
13 -1 0
13 0
13 1 0
13 -1 0
13 0
11 0
12 0
11 0
11 12 0
12 0
11 0
12 0
11 0
11 12 0
12 0
13 0
13 0
11 0
11 0
3 0
2 0
4 0
6 0
6 4 0
6 3 0
3 9 6 0
3 9 4 0
4 10 3 0
4 10 6 0
6 0
4 10 0
4 3 6 9 0
3 9 0
2 8 0
4 10 3 6 0
-1 0
4 0
2 0
6 0
3 0
7 1 0
7 -1 0
7 0
3 0
3 0
4 10 3 0
4 3 9 0
3 0
4 3 9 0
4 0
4 10 0
4 10 3 0
3 9 0
4 10 0
3 9 0
4 10 3 0
4 0
4 10 0
4 0
4 3 9 0
3 9 0
3 0
3 0
4 10 3 0
4 3 9 0
3 0
4 3 9 0
4 0
4 10 0
4 10 3 0
3 9 0
4 10 0
3 9 0
4 10 3 0
4 0
4 10 0
4 0
4 3 9 0
3 9 0
11 1 0
11 -1 0
11 0
11 0
11 0
11 0
11 0
5 14 0
5 0
2 8 0
2 0
5 0
2 8 0
5 14 0
2 0
5 14 0
2 8 0
5 0
2 0
5 14 0
2 0
2 8 0
5 0
5 0
5 14 0
2 8 0
2 0
11 0
11 0
1 11 0
-1 11 0
11 0
11 0
11 0
11 0
11 0
11 0
11 0
11 0
11 0
11 0
11 0
7 0
15 0
7 0
7 0
15 0
15 0
15 0
7 0
15 0
7 0
15 0
15 0
15 0
7 0
7 0
15 0
15 0
15 0
15 0
7 0
7 0
15 0
15 0
7 0
13 1 0
13 -1 0
13 0
7 1 0
7 -1 0
7 0
6 0
3 0
4 0
6 4 0
4 0
6 0
4 10 3 0
4 10 3 6 0
3 0
6 0
6 3 0
3 9 0
3 9 4 0
4 3 6 9 0
4 10 0
3 9 6 0
4 10 6 0
3 9 4 0
6 3 0
4 10 3 0
6 4 0
4 0
4 3 6 9 0
6 0
3 0
6 0
4 10 0
3 9 6 0
4 10 6 0
4 10 3 6 0
3 9 0
3 9 4 0
6 3 0
6 0
4 3 6 9 0
3 9 0
4 10 6 0
3 0
6 4 0
4 10 0
4 10 3 0
4 10 3 6 0
4 0
6 0
3 9 6 0
6 4 0
4 10 3 6 0
6 0
4 10 0
3 9 4 0
4 3 6 9 0
3 9 0
4 10 6 0
4 0
3 0
6 0
4 10 3 0
6 3 0
3 9 6 0
3 0
4 0
6 0
3 -9 -10 0
-3 4 -10 0
-4 3 -9 0
4 -9 -10 0
4 10 1 0
4 3 1 9 0
4 10 3 1 0
3 9 1 0
4 10 -1 0
4 10 3 -1 0
4 3 -1 9 0
3 9 -1 0
3 0
4 0
13 1 0
13 -1 0
13 0
11 0
12 0
11 0
12 0
1 11 0
-1 11 0
11 0
4 10 0
3 0
6 0
3 9 0
4 10 3 0
4 0
6 0
3 9 4 0
4 0
6 0
3 0
11 0
11 0
12 0
11 12 0
12 0
11 0
11 0
12 0
11 12 0
12 0
13 0
13 0
13 0
13 0
12 0
12 0
12 0
12 0
12 0
12 0
15 0
15 0
15 0
15 0
15 0
15 0
15 0
15 0
15 0
15 0
15 0
13 1 0
13 -1 0
13 0
1 7 0
-1 7 0
7 0
15 1 0
15 -1 0
15 0
12 0
12 0
4 10 3 0
4 10 0
6 0
3 9 4 0
6 0
3 9 0
4 0
3 0
4 0
3 0
6 0
1 11 0
-1 11 0
11 0
15 1 0
15 -1 0
15 0
3 0
4 0
6 0
3 9 0
4 10 6 0
6 0
4 10 3 6 0
3 9 4 0
3 0
4 10 3 0
4 0
6 4 0
3 9 6 0
4 3 6 9 0
6 0
6 3 0
4 10 0
3 9 0
3 9 4 0
4 10 3 0
6 0
4 0
4 10 0
6 0
6 3 0
6 4 0
3 0
3 9 6 0
4 10 3 6 0
4 3 6 9 0
4 10 6 0
3 9 6 0
6 0
4 10 3 6 0
6 3 0
4 0
4 10 0
4 10 3 0
3 9 0
4 10 6 0
4 3 6 9 0
3 0
6 0
6 4 0
3 9 4 0
4 10 6 0
6 3 0
6 0
3 9 6 0
3 9 0
6 4 0
4 10 0
4 0
4 3 6 9 0
4 10 3 6 0
3 0
4 10 3 0
6 0
3 9 4 0
4 0
6 0
3 0
4 0
4 10 3 0
4 10 0
3 9 4 0
3 0
3 9 0
4 10 0
4 10 3 0
3 9 0
3 9 4 0
4 10 0
4 10 3 0
3 9 0
3 9 4 0
11 0
11 0
11 0
11 0
11 0
11 0
11 0
11 0
11 0
12 1 0
12 -1 0
12 0
3 -9 -10 0
4 -9 -10 0
-3 4 -10 0
-4 3 -9 0
4 10 3 1 0
4 3 1 9 0
3 9 1 0
4 10 1 0
4 3 -1 9 0
3 9 -1 0
4 10 -1 0
4 10 3 -1 0
3 0
4 0
5 14 0
2 0
2 8 0
11 0
11 0
11 0
2 0
11 0
2 8 0
5 14 0
2 8 0
11 0
2 0
5 14 0
11 0
11 0
11 0
2 0
2 8 0
5 14 0
6 0
11 0
3 9 0
4 10 0
3 0
4 3 6 9 0
4 0
4 10 3 0
3 9 6 0
4 10 3 6 0
11 0
6 4 0
3 9 4 0
6 3 0
6 0
4 10 6 0
7 1 0
7 -1 0
7 0
7 0
7 0
7 0
7 0
7 0
7 0
7 0
7 0
7 0
7 0
7 0
7 0
7 0
7 0
7 0
7 0
7 0
7 0
7 0
7 0
7 0
7 0
7 0
7 0
7 0
7 0
7 0
7 0
7 0
7 0
7 0
7 0
4 10 0
3 9 0
4 0
4 0
4 10 3 0
4 0
3 9 4 0
4 10 3 0
3 9 0
4 3 9 0
4 10 0
3 9 0
4 3 9 0
3 9 4 0
3 9 4 0
3 9 4 0
4 0
3 9 0
4 10 3 0
3 9 0
3 9 0
4 0
3 9 0
4 10 3 0
4 3 9 0
4 3 9 0
4 10 0
4 10 0
4 10 3 0
3 9 4 0
4 10 0
4 10 0
3 9 4 0
4 10 3 0
4 3 9 0
3 9 4 0
3 9 0
4 10 0
4 10 0
4 0
4 10 0
4 10 3 0
4 3 9 0
3 9 4 0
3 9 4 0
3 9 0
3 9 4 0
4 10 0
4 10 3 0
4 10 0
3 0
4 10 0
4 10 3 0
3 9 0
4 10 3 0
3 0
3 0
3 9 0
3 9 0
4 10 0
3 0
3 9 4 0
3 9 4 0
4 10 0
4 10 3 0
3 9 4 0
3 9 4 0
4 3 9 0
4 10 0
4 10 0
4 10 3 0
3 9 4 0
4 10 0
4 10 3 0
4 10 3 0
3 9 0
4 10 3 0
3 9 4 0
3 9 0
4 10 3 0
4 10 0
3 9 0
4 10 0
4 10 0
3 9 4 0
4 10 3 0
4 10 0
3 9 4 0
3 9 0
3 9 0
3 0
4 10 3 0
3 9 4 0
4 0
4 10 3 0
4 3 9 0
4 10 3 0
4 10 0
4 10 0
3 9 0
4 0
4 10 3 0
3 9 0
4 10 3 0
3 9 0
4 10 0
3 0
4 10 0
3 9 0
3 9 4 0
4 10 0
3 9 4 0
4 10 3 0
3 9 0
4 3 9 0
4 10 3 0
4 10 3 0
3 9 4 0
3 9 0
4 10 3 0
3 9 0
4 10 3 0
3 9 0
4 10 3 0
4 10 0
3 0
3 9 0
3 9 0
4 10 0
3 9 0
4 10 0
3 9 0
3 0
4 10 3 0
4 0
3 9 0
3 9 4 0
4 10 0
4 10 0
4 10 3 0
4 10 3 0
4 10 3 0
3 9 0
4 10 0
3 9 0
3 0
4 10 3 0
3 9 0
4 3 9 0
4 10 3 0
3 9 4 0
4 3 9 0
4 0
4 10 3 0
4 10 0
3 9 4 0
4 10 3 0
3 9 0
4 0
3 9 0
4 10 0
4 10 3 0
4 10 3 0
4 10 3 0
4 3 9 0
4 10 0
4 3 9 0
4 10 3 0
4 10 3 0
4 0
3 9 0
4 10 3 0
4 10 0
4 3 9 0
4 10 3 0
4 10 0
4 10 3 0
4 10 0
3 9 4 0
4 0
4 10 3 0
4 10 0
4 10 0
3 9 0
4 10 3 0
4 3 9 0
4 10 0
3 9 4 0
4 10 3 0
4 10 0
3 9 0
3 9 4 0
4 0
4 0
3 9 4 0
4 10 3 0
3 9 0
4 3 9 0
3 9 0
3 9 0
3 9 0
3 9 4 0
4 10 0
4 10 0
4 10 3 0
4 10 3 0
3 9 4 0
3 0
3 9 0
3 0
3 0
4 10 0
4 10 0
3 9 0
3 9 4 0
4 10 3 0
3 9 0
4 0
3 9 0
4 10 3 0
4 10 0
4 10 3 0
4 0
3 9 4 0
3 9 0
4 10 0
3 9 4 0
4 10 0
3 0
4 3 9 0
3 9 0
3 0
3 0
3 9 0
3 9 4 0
4 10 0
3 9 0
4 10 0
4 10 3 0
3 9 4 0
3 9 0
3 9 4 0
3 9 0
4 10 3 0
4 10 0
4 10 0
4 10 0
4 10 0
3 9 0
4 10 3 0
3 9 4 0
4 10 3 0
3 9 4 0
3 0
4 10 3 0
4 0
3 9 0
3 9 0
4 10 3 0
3 0
3 9 0
3 0
4 10 3 0
4 10 0
4 10 0
3 9 0
3 9 0
4 10 0
3 9 4 0
4 10 3 0
4 10 0
4 3 9 0
3 9 4 0
3 9 4 0
3 9 0
4 10 3 0
3 9 4 0
3 9 0
3 9 4 0
4 10 0
4 10 3 0
3 9 4 0
4 10 3 0
4 10 0
3 9 4 0
3 9 0
4 10 0
4 10 0
3 9 0
3 9 0
3 9 0
4 10 0
3 0
3 0
4 0
4 0
3 0
4 0
3 0
4 0
3 0
4 0
3 0
4 0
4 0
3 0
3 0
4 0
3 0
4 0
4 0
4 0
4 0
4 0
4 0
3 0
4 0
4 0
3 0
3 0
3 0
4 0
4 0
3 0
4 0
3 0
3 0
3 0
3 0
3 0
4 0
3 0
3 0
3 0
3 0
4 0
3 0
3 0
3 0
3 0
3 0
4 0
4 0
4 0
4 0
3 0
4 0
4 0
3 0
4 0
4 0
4 0
3 0
3 0
4 0
4 0
4 10 0
4 10 0
3 9 0
3 9 4 0
4 10 0
3 9 0
3 0
4 10 3 0
3 9 0
3 9 4 0
4 10 3 0
4 3 9 0
3 9 4 0
4 0
3 0
3 9 0
3 0
3 9 0
4 10 3 0
4 3 9 0
4 10 3 0
4 0
4 10 3 0
4 10 0
3 9 4 0
4 10 0
3 9 4 0
3 9 4 0
4 10 0
4 10 3 0
3 9 0
4 10 3 0
3 9 4 0
4 3 9 0
3 9 4 0
4 10 0
4 10 3 0
4 3 9 0
4 0
3 0
4 10 3 0
4 0
3 9 4 0
3 9 0
4 10 0
4 10 3 0
4 0
3 9 0
3 9 0
3 9 4 0
4 10 3 0
3 9 4 0
3 0
3 9 0
4 10 0
3 9 4 0
4 10 0
3 9 0
4 10 3 0
3 9 0
4 0
4 0
4 10 0
4 10 3 0
4 10 0
4 10 0
3 9 0
4 10 3 0
3 9 0
3 9 4 0
4 10 3 0
4 10 0
4 10 0
4 3 9 0
3 9 4 0
3 9 4 0
4 3 9 0
3 9 4 0
4 3 9 0
3 0
3 9 4 0
3 0
4 10 0
3 9 0
4 10 0
4 10 3 0
4 10 3 0
3 9 0
3 0
4 10 3 0
4 10 3 0
4 10 3 0
4 10 0
4 10 0
3 9 0
4 10 0
4 10 3 0
3 9 0
3 9 0
4 10 0
3 9 0
4 3 9 0
4 10 3 0
3 9 4 0
4 0
4 10 0
4 10 0
4 10 0
3 9 0
4 10 3 0
3 9 0
3 9 4 0
4 10 3 0
4 10 0
3 9 0
3 9 0
4 10 3 0
4 10 3 0
4 0
4 10 0
4 10 0
4 10 3 0
4 10 3 0
4 10 3 0
4 10 0
3 9 0
4 10 0
3 9 4 0
4 10 3 0
4 10 3 0
4 10 0
4 10 3 0
4 10 0
3 9 0
4 10 0
4 0
4 10 0
3 9 4 0
3 9 0
3 0
3 9 0
3 9 4 0
3 9 0
3 9 0
3 9 0
4 3 9 0
3 9 0
3 9 0
3 9 4 0
3 0
3 0
3 0
3 0
4 0
4 0
4 0
4 0
4 0
4 0
3 0
3 0
4 0
3 0
3 0
4 0
4 0
4 0
3 0
4 0
3 0
3 0
3 0
3 0
3 0
3 0
4 0
3 0
3 0
3 0
4 0
4 0
3 0
3 0
3 0
4 0
3 0
4 0
3 0
3 0
4 0
3 0
3 0
4 0
4 0
4 0
4 0
3 0
4 0
4 0
3 0
4 0
4 0
3 0
4 0
3 0
3 0
4 0
4 0
3 0
4 0
4 0
4 0
3 0
3 0
4 0
4 0
1 11 0
-1 11 0
11 0
1 12 0
-1 12 0
12 0
3 0
6 0
4 0
11 0
15 0
15 0
15 0
15 0
15 0
15 0
15 0
15 0
15 0
15 0
15 0
15 0
15 0
15 0
15 0
15 0
15 0
15 0
15 0
15 0
15 0
15 0
15 0
15 0
15 0
15 0
15 0
15 0
15 0
15 0
15 0
15 0
12 0
12 0
12 0
12 0
12 0
12 0
12 0
12 0
12 0
11 0
11 0
11 0
11 0
11 0
11 0
11 0
11 0
11 0
11 0
11 0
11 0
11 0
12 0
11 0
12 0
11 0
1 7 0
-1 7 0
7 0
11 0
11 0
11 0
11 0
11 0
11 0
11 0
11 0
15 0
15 0
15 0
15 0
15 0
15 0
15 0
15 0
15 0
15 0
12 0
12 0
12 7 0
7 0
7 0
12 7 0
7 0
12 0
12 0
7 0
12 0
7 0
12 7 0
7 0
12 0
12 0
12 0
7 0
7 0
12 7 0
7 0
12 0
11 0
11 0
12 0
12 0
7 1 0
7 -1 0
7 0
4 10 3 0
4 0
4 10 0
3 9 0
6 0
6 0
3 9 4 0
3 0
4 0
3 0
6 0
6 0
4 0
4 10 3 0
3 9 4 0
6 0
3 0
3 9 0
4 10 0
6 0
3 0
4 0
-10 -3 4 0
-10 -9 3 0
-10 -9 4 0
-4 -9 3 0
4 10 1 0
4 3 1 9 0
3 9 1 0
4 10 3 1 0
4 10 -1 0
4 3 -1 9 0
3 9 -1 0
4 10 3 -1 0
3 0
4 0
12 0
12 0
12 0
12 0
12 0
12 0
12 0
12 0
12 0
12 0
12 0
12 0
12 0
4 0
3 0
6 0
4 0
4 10 3 0
3 9 4 0
6 0
6 0
3 0
4 10 0
3 9 0
6 0
3 9 4 0
3 0
3 9 0
4 10 0
4 10 3 0
6 0
4 0
4 0
3 9 0
3 0
3 9 4 0
4 10 3 0
6 0
6 0
4 10 0
4 0
3 9 0
6 0
4 10 3 0
3 0
4 10 0
6 0
3 9 4 0
6 0
3 4 0
11 6 0
3 0
4 0
6 4 0
11 4 0
4 0
6 3 0
11 3 0
3 0
6 0
11 1 0
11 -1 0
11 0
15 0
15 0
5 0
2 0
5 14 0
2 0
2 8 0
2 0
2 8 0
2 0
2 0
5 14 0
2 0
5 0
5 0
5 14 0
2 0
2 0
2 8 0
2 0
2 8 0
5 14 0
2 0
2 0
15 0
12 0
12 0
11 12 1 0
11 1 0
12 1 0
11 -1 0
12 -1 0
11 12 -1 0
12 0
11 0
1 7 0
1 12 0
-1 7 0
-1 12 0
7 0
12 0
15 1 0
15 -1 0
15 0
2 8 0
2 0
5 14 0
5 0
2 8 0
5 0
2 0
5 14 0
5 14 0
2 0
5 0
2 8 0
7 0
7 0
4 -9 -10 0
3 -9 -10 0
-3 4 -10 0
-4 3 -9 0
4 3 1 9 0
4 10 3 1 0
4 10 1 0
3 9 1 0
4 3 -1 9 0
3 9 -1 0
4 10 3 -1 0
4 10 -1 0
3 0
4 0
3 -9 -10 0
4 -9 -10 0
-4 3 -9 0
-3 4 -10 0
4 10 1 0
3 9 1 0
4 3 1 9 0
4 10 3 1 0
4 10 -1 0
3 9 -1 0
4 10 3 -1 0
4 3 -1 9 0
3 0
4 0
11 1 0
11 -1 0
11 0
15 0
15 0
15 0
15 0
15 0
15 0
15 0
15 0
15 0
15 0
15 0
15 0
15 0
15 0
15 0
15 0
15 0
4 10 6 0
6 4 0
4 3 6 9 0
4 10 3 6 0
2 0
3 9 4 0
6 0
4 10 3 0
3 9 6 0
3 9 0
6 3 0
4 10 0
2 8 0
3 9 0
2 8 0
3 9 4 0
4 10 3 0
2 0
6 4 0
6 3 0
4 10 3 6 0
6 0
4 10 6 0
4 10 0
4 3 6 9 0
3 9 6 0
3 9 6 0
6 4 0
2 8 0
4 10 6 0
4 10 0
3 9 0
4 10 3 0
4 3 6 9 0
2 0
6 0
3 9 4 0
6 3 0
4 10 3 6 0
3 9 6 0
4 10 3 6 0
4 10 3 0
4 10 6 0
6 0
3 9 0
4 10 0
4 3 6 9 0
6 3 0
3 9 4 0
2 8 0
2 0
6 4 0
2 8 0
2 0
2 0
11 0
11 0
5 0
5 14 0
11 0
-1 0
5 0
5 14 0
5 0
7 0
7 0
7 0
7 0
7 0
7 0
7 0
7 0
7 0
1 11 0
-1 11 0
11 0
1 7 0
-1 7 0
7 0
1 7 0
-1 7 0
7 0
11 0
11 0
1 15 0
-1 15 0
15 0
7 0
15 0
15 0
15 0
7 0
7 0
15 0
7 0
7 0
15 0
7 0
15 0
7 0
15 0
15 0
7 0
15 0
7 0
7 0
15 0
11 0
7 0
7 0
7 0
7 0
7 0
7 0
7 0
7 0
7 0
15 1 0
15 -1 0
15 0
-2 -16 -5 0
-14 -2 -16 0
-8 -16 -5 0
-14 -8 -16 0
-2 -11 -16 -5 0
-2 -16 -5 0
-2 -16 -5 0
-14 -2 -16 0
-8 -16 -5 0
-14 -8 -16 0
13 1 0
13 -1 0
13 0
3 0
6 0
3 9 4 0
3 9 0
6 0
4 10 3 0
4 0
4 10 0
3 0
4 0
6 0
15 1 0
15 -1 0
15 0
12 1 0
12 -1 0
12 0
4 0
3 0
6 0
3 9 0
6 4 0
3 9 4 0
3 0
4 10 3 6 0
3 9 6 0
6 3 0
6 0
4 10 6 0
4 0
6 0
4 3 6 9 0
4 10 3 0
4 10 0
4 10 3 0
3 9 6 0
4 0
3 9 0
4 10 0
6 3 0
6 0
3 9 4 0
3 0
4 3 6 9 0
4 10 6 0
4 10 3 6 0
6 0
6 4 0
6 4 0
4 0
6 3 0
3 9 0
3 9 6 0
6 0
4 10 3 0
6 0
4 10 6 0
3 0
4 10 0
4 3 6 9 0
4 10 3 6 0
3 9 4 0
4 0
3 9 0
3 9 6 0
4 10 3 0
6 0
4 10 3 6 0
4 10 0
3 0
6 4 0
4 3 6 9 0
6 0
4 10 6 0
3 9 4 0
6 3 0
3 0
4 0
6 0
7 0
7 0
7 0
7 0
7 0
7 0
7 0
7 0
7 0
7 0
7 0
7 0
7 0
11 1 0
11 -1 0
11 0
15 0
15 0
15 0
15 0
15 0
15 0
15 0
15 0
15 0
15 0
3 9 4 0
6 4 0
6 0
3 9 0
4 10 0
3 0
4 3 6 9 0
4 10 3 6 0
3 9 6 0
6 3 0
4 0
6 0
4 10 6 0
4 10 3 0
4 0
3 0
6 0
15 1 0
15 -1 0
15 0
15 0
15 0
15 0
1 12 0
-1 12 0
12 0
4 10 0
3 9 4 0
3 9 0
4 10 3 0
4 10 0
3 9 4 0
3 9 0
4 10 3 0
13 1 0
13 -1 0
13 0
12 0
12 0
5 -14 -11 0
5 14 1 0
11 1 0
11 5 1 0
5 11 14 1 0
5 14 -1 0
5 11 14 -1 0
11 -1 0
11 5 -1 0
5 0
11 0
15 0
15 0
15 1 0
15 -1 0
15 0
3 0
2 0
6 0
4 0
3 9 0
2 8 0
6 3 0
4 10 3 6 0
4 10 0
3 9 4 0
3 9 6 0
4 10 6 0
4 3 6 9 0
6 4 0
6 0
4 10 3 0
-1 0
2 0
3 0
4 0
6 0
12 0
12 0
12 0
12 0
12 0
12 0
12 0
12 0
12 0
11 1 0
11 -1 0
11 0
4 10 3 0
4 0
3 9 4 0
6 0
4 10 0
3 9 0
3 0
6 0
1 11 0
1 12 0
-1 11 0
-1 12 0
11 0
12 0
3 0
6 0
2 0
4 0
3 0
2 0
4 0
6 0
-1 0
2 0
4 0
6 0
3 0
11 0
11 0
12 0
12 0
3 0
4 0
6 0
2 0
6 3 0
3 9 0
3 9 6 0
2 8 0
6 4 0
4 10 6 0
4 10 3 0
4 10 0
4 10 3 6 0
3 9 4 0
4 3 6 9 0
6 0
-1 0
3 0
4 0
6 0
2 0
1 12 0
-1 12 0
12 0
7 0
7 0
7 0
11 0
11 12 1 0
12 1 0
11 1 0
11 12 -1 0
11 -1 0
12 -1 0
12 0
11 0
1 11 0
-1 11 0
11 0
11 0
15 0
15 0
15 0
15 0
7 1 0
7 -1 0
7 0
11 1 0
11 -1 0
11 0
3 9 0
4 10 0
4 10 3 0
6 0
3 0
6 0
4 0
3 9 4 0
6 0
2 0
4 0
3 0
6 3 0
4 10 0
3 9 6 0
4 10 3 6 0
4 3 6 9 0
6 4 0
3 9 4 0
4 10 6 0
3 9 0
2 8 0
4 10 3 0
6 0
-1 0
3 0
6 0
2 0
4 0
12 11 0
11 0
12 0
12 0
12 0
7 1 0
7 -1 0
7 0
1 11 0
-1 11 0
11 0
15 0
15 0
7 0
7 0
4 0
3 0
3 9 0
4 10 0
4 0
3 0
12 0
11 0
12 0
11 12 0
11 0
12 0
11 12 0
12 0
12 -1 0
11 -1 12 0
11 12 0
12 0
11 0
12 0
11 12 0
12 0
15 0
15 0
4 -9 -10 0
3 -9 -10 0
-4 3 -9 0
-3 4 -10 0
4 10 3 1 0
3 9 1 0
4 3 1 9 0
4 10 1 0
4 10 3 -1 0
3 9 -1 0
4 10 -1 0
4 3 -1 9 0
3 0
4 0
11 0
11 0
12 0
12 0
12 0
12 0
11 0
11 0
11 0
12 0
12 0
11 0
12 0
11 0
11 0
12 0
12 0
11 0
15 0
15 0
15 0
15 0
15 0
15 0
15 0
15 0
15 0
15 0
15 0
15 0
15 0
15 0
4 0
12 0
6 0
3 0
6 3 0
6 0
6 4 0
4 3 6 9 0
3 9 4 0
12 0
4 10 3 0
4 0
3 0
12 0
3 9 0
4 10 6 0
4 10 3 6 0
3 9 6 0
6 0
4 10 0
4 10 3 0
6 0
4 10 3 6 0
3 0
3 9 4 0
6 0
12 0
12 0
4 0
4 10 0
4 3 6 9 0
4 10 6 0
3 9 6 0
6 3 0
6 4 0
3 9 0
6 0
4 10 3 6 0
6 3 0
4 10 0
4 3 6 9 0
3 0
3 9 6 0
3 9 0
6 4 0
4 10 3 0
12 0
12 0
4 0
3 9 4 0
4 10 6 0
6 0
4 0
3 9 6 0
4 10 3 0
12 0
3 9 4 0
6 0
4 3 6 9 0
4 10 3 6 0
4 10 6 0
6 4 0
12 0
4 10 0
3 0
6 0
3 9 0
6 3 0
15 0
15 0
15 0
15 0
1 11 0
-1 11 0
11 0
-14 -8 -16 0
-2 -11 -16 -5 0
-14 -2 -16 0
-2 -16 -5 0
-2 -16 -5 0
-8 -16 -5 0
-8 -16 -5 0
-2 -16 -5 0
-14 -2 -16 0
-14 -8 -16 0
7 0
7 0
4 0
4 10 0
3 9 0
3 0
4 10 3 0
6 0
3 9 4 0
6 0
6 0
4 0
3 0
15 1 0
15 -1 0
15 0
15 0
15 0
15 0
7 0
7 0
7 0
11 0
11 0
12 0
12 0
15 0
15 0
15 0
15 0
15 0
15 0
15 0
15 -1 0
15 0
-4 3 -9 0
-3 4 -10 0
3 -9 -10 0
4 -9 -10 0
4 0
3 0
4 10 3 0
3 9 4 0
4 10 0
3 9 0
3 0
3 9 4 0
4 10 3 0
3 9 0
4 10 0
4 0
4 0
4 10 0
3 9 4 0
4 10 3 0
3 0
3 9 0
3 9 0
4 0
4 10 3 0
3 0
4 10 0
3 9 4 0
3 0
4 0
1 12 0
-1 12 0
12 0
13 0
13 0
4 10 0
6 0
4 10 3 0
6 3 0
6 4 0
3 9 4 0
4 10 6 0
4 3 6 9 0
4 10 3 6 0
3 9 6 0
3 9 0
6 -1 0
4 -1 0
4 -1 0
4 6 -1 0
4 3 -1 0
3 -1 0
6 -1 0
3 -1 0
3 6 -1 0
4 0
4 10 3 0
3 9 0
4 10 0
3 0
6 0
3 9 4 0
6 0
4 0
3 0
6 0
3 9 1 0
4 10 3 1 0
4 10 1 0
4 10 3 6 1 0
3 6 1 9 0
4 6 1 0
4 3 6 1 9 0
3 6 1 0
4 3 1 9 0
6 1 0
4 10 6 1 0
3 -1 0
4 -1 0
6 -1 0
4 10 3 6 0
4 3 6 9 0
4 10 3 0
4 0
3 9 0
4 10 6 0
4 10 0
4 10 0
3 0
3 9 6 0
6 3 0
3 9 4 0
6 4 0
3 9 0
6 0
3 4 0
6 4 0
3 0
6 3 0
4 0
11 0
11 0
11 0
11 0
11 0
11 0
11 0
11 0
11 0
3 9 0
3 9 4 0
3 0
6 0
4 10 0
6 0
4 0
4 10 3 0
15 0
15 0
15 0
15 0
15 0
15 0
11 0
11 0
11 0
11 0
15 0
15 0
15 0
11 0
15 0
15 0
11 0
15 0
11 0
15 0
15 0
11 0
15 0
11 0
15 0
15 0
15 0
11 0
15 0
15 0
15 0
15 0
15 0
15 0
15 0
15 0
11 0
11 0
11 0
15 0
15 0
11 0
15 0
15 0
11 0
15 0
15 0
15 0
15 0
11 0
15 0
15 0
15 0
1 15 0
-1 15 0
15 0
11 0
15 0
15 0
15 0
15 0
15 0
15 0
15 0
15 0
15 0
15 0
-14 -8 -16 0
-2 -16 -5 0
-8 -16 -5 0
-14 -2 -16 0
-2 -16 -5 0
-2 -11 -16 -5 0
-14 -2 -16 0
-14 -8 -16 0
-2 -16 -5 0
-8 -16 -5 0
12 1 0
12 -1 0
12 0
15 0
15 0
15 0
7 0
7 0
7 0
7 0
7 0
7 0
7 0
7 0
7 0
7 0
7 0
7 0
7 0
7 0
7 0
7 0
7 0
7 0
7 0
7 0
15 1 0
15 -1 0
15 0
15 0
15 0
-2 -16 -5 0
-2 -16 -5 0
-2 -11 -16 -5 0
-8 -16 -5 0
-14 -8 -16 0
-14 -2 -16 0
-2 -16 -5 0
-8 -16 -5 0
-14 -8 -16 0
-14 -2 -16 0
4 10 3 0
3 9 4 0
4 10 3 0
4 10 0
3 9 0
3 9 4 0
4 10 0
3 9 0
3 9 4 0
3 9 4 0
4 10 0
3 9 0
4 10 0
3 9 0
4 10 3 0
4 10 3 0
3 -1 0
4 3 -1 0
4 -1 0
4 0
3 9 0
3 9 4 0
4 10 3 0
4 10 0
4 10 0
3 0
3 9 0
4 10 3 0
4 10 0
3 9 4 0
3 9 0
4 0
4 0
3 0
4 0
3 0
3 0
15 0
15 0
13 0
3 0
4 0
3 9 0
4 10 3 0
4 0
13 0
4 3 9 0
3 0
13 0
4 0
4 10 0
3 0
13 0
4 0
3 0
4 3 9 0
4 10 0
4 10 3 0
3 0
13 0
13 0
3 9 0
4 0
13 0
13 0
4 0
13 0
4 0
4 3 9 0
3 0
3 9 0
4 10 3 0
13 0
4 10 0
3 0
4 10 0
4 10 3 0
13 0
3 0
13 0
4 0
3 9 0
4 0
13 0
3 0
4 3 9 0
13 0
3 0
4 0
3 0
3 9 4 0
4 10 0
4 0
3 9 0
4 10 3 0
3 9 0
3 9 4 0
4 10 3 0
4 10 0
12 0
12 -8 0
12 2 0
12 0
12 0
12 -8 0
12 2 0
12 0
12 7 1 0
7 1 0
12 1 0
7 -1 0
12 -1 0
7 12 -1 0
12 0
7 0
15 0
15 0
3 0
3 9 1 0
3 9 -1 0
3 0
15 0
12 0
12 0
12 0
12 0
12 0
12 0
12 0
12 0
12 0
-14 1 0
-5 -14 0
1 -5 12 0
-1 -14 12 0
-1 -5 12 0
-14 12 0
-5 12 0
13 1 0
13 -1 0
13 0
12 0
12 0
7 0
7 0
7 0
7 0
7 0
7 0
7 0
7 -1 0
7 0
6 0
6 0
6 0
6 0
6 0
6 0
6 0
6 0
6 0
6 0
13 1 0
13 -1 0
13 0
1 12 0
-1 12 0
12 0
7 1 0
7 -1 0
7 0
13 1 0
13 -1 0
13 0
13 0
5 0
13 0
5 14 0
13 0
5 0
5 0
5 14 0
13 0
13 0
5 14 0
13 0
13 0
5 0
13 0
13 0
5 14 0
5 0
5 0
13 0
4 0
3 9 0
6 0
4 10 0
3 9 4 0
4 10 3 0
3 0
6 0
4 0
3 0
6 0
12 1 0
12 -1 0
12 0
3 0
4 0
4 10 3 0
3 9 4 0
3 9 0
4 0
4 10 0
3 0
3 9 0
4 10 3 0
3 9 4 0
3 0
4 10 0
4 0
3 9 0
3 9 4 0
4 0
3 0
4 10 0
4 10 3 0
4 10 0
3 0
4 10 3 0
4 0
3 9 0
3 9 4 0
3 0
4 0
1 11 0
-1 11 0
11 0
15 1 0
15 -1 0
15 0
5 0
11 0
5 0
11 0
5 14 0
11 0
11 0
11 0
5 14 0
5 0
11 0
11 0
11 0
11 0
5 14 0
5 0
11 0
5 14 0
5 0
11 0
11 0
11 0
1 12 0
1 11 0
-1 12 0
-1 11 0
12 0
11 0
11 12 1 0
12 1 0
11 1 0
11 -1 0
11 12 -1 0
12 -1 0
12 0
11 0
-4 3 -9 0
4 -9 -10 0
3 -9 -10 0
-3 4 -10 0
4 3 1 9 0
3 9 1 0
4 10 3 1 0
4 10 1 0
4 10 -1 0
4 10 3 -1 0
4 3 -1 9 0
3 9 -1 0
3 0
4 0
13 0
15 0
15 0
13 0
13 0
15 0
13 0
15 0
15 0
13 0
13 0
15 0
15 0
13 0
15 0
15 0
13 0
13 0
1 7 0
-1 7 0
7 0
1 7 0
-1 7 0
7 0
12 0
12 0
12 11 0
11 0
12 0
15 0
15 0
15 0
15 0
15 0
15 0
15 0
15 0
15 0
15 0
15 -1 0
15 0
1 11 0
-1 11 0
11 0
7 1 0
7 -1 0
7 0
12 0
12 0
7 0
7 0
7 0
7 0
7 0
7 0
7 0
7 0
7 0
7 0
7 0
7 0
7 0
7 0
13 0
13 0
13 0
13 0
13 0
13 0
13 0
13 0
13 0
13 0
1 12 0
1 11 0
-1 12 0
-1 11 0
12 0
11 0
-2 -11 -16 -5 0
-2 -16 -5 0
-8 -16 -5 0
-14 -2 -16 0
-2 -16 -5 0
-14 -8 -16 0
-8 -16 -5 0
-14 -2 -16 0
-14 -8 -16 0
-2 -16 -5 0
6 0
3 9 4 0
6 0
4 10 0
3 0
4 0
3 9 0
4 10 3 0
6 0
3 0
4 0
7 0
7 0
7 0
7 0
7 0
7 0
7 0
7 0
7 0
1 12 0
-1 12 0
12 0
1 12 0
-1 12 0
12 0
3 0
3 9 4 0
4 0
4 10 3 0
3 9 0
6 0
6 0
4 10 0
3 0
6 0
4 0
4 -9 -10 0
-4 3 -9 0
-3 4 -10 0
3 -9 -10 0
4 10 1 0
3 9 1 0
4 3 1 9 0
4 10 3 1 0
4 3 -1 9 0
3 9 -1 0
4 10 3 -1 0
4 10 -1 0
3 0
4 0
15 0
15 0
15 0
12 1 0
12 -1 0
12 0
1 7 0
-1 7 0
7 0
15 0
15 0
15 0
15 0
7 1 0
12 1 0
12 7 1 0
12 7 -1 0
12 -1 0
7 -1 0
12 0
12 0
12 0
15 1 0
15 -1 0
15 0
1 7 0
-1 7 0
7 0
1 7 0
-1 7 0
7 0
15 0
15 0
3 0
3 9 4 0
4 10 3 0
4 10 0
4 0
3 9 0
3 0
3 9 4 0
4 10 3 0
4 10 0
4 0
3 9 0
3 0
4 10 3 0
3 9 0
3 9 4 0
4 10 0
6 0
6 0
4 0
3 0
4 0
6 0
