p cnf 12 96
1 3 7 0
-6 -8 10 -11 0
2 -10 11 12 0
6 0
-6 -10 0
5 -9 0
5 -9 0
-7 0
-1 5 6 9 0
-5 0
-5 12 0
-7 0
-6 -10 0
8 -11 0
-5 0
-2 -3 -7 10 0
6 0
7 12 0
3 -11 0
-6 -10 0
12 0
-6 -10 0
6 -7 8 -11 0
1 9 -10 0
-4 0
-7 -10 11 12 0
-1 12 0
-2 3 -10 0
-7 0
-5 7 9 0
-3 -4 6 9 0
-5 10 0
1 3 7 0
2 -10 11 12 0
3 -11 0
-8 11 0
-10 11 -12 0
7 12 0
7 12 0
-3 -4 6 9 0
3 -7 -8 -10 0
-7 10 -11 -12 0
2 -4 11 0
3 -7 -8 -10 0
-4 0
1 4 5 0
5 6 0
3 -11 0
-7 10 -11 -12 0
-8 0
2 -5 0
-8 0
-10 12 0
5 -9 0
-1 5 6 9 0
-10 12 0
-1 7 -8 0
6 -7 8 -11 0
-1 5 6 9 0
1 -4 -10 -11 0
-10 11 -12 0
-7 -10 11 12 0
-3 -4 6 9 0
1 3 7 0
-5 -9 10 0
5 6 0
2 0
-1 3 0
3 -7 -8 -10 0
-3 -4 6 9 0
12 0
3 -7 -8 -10 0
3 -7 -8 -10 0
1 10 0
-7 0
-1 -5 0
8 10 12 0
-1 -4 0
9 -11 -12 0
-5 7 9 0
-9 -10 12 0
1 9 -10 0
-9 0
-1 7 -8 0
-1 7 -8 0
2 0
-2 8 -10 0
1 -4 -10 -11 0
12 0
1 7 8 10 0
-5 7 9 0
1 7 8 10 0
-2 3 -10 0
-5 0
-5 10 0
8 10 12 0
