p cnf 8 82
1 -3 -8 0
2 -1 -4 0
2 -1 -6 -8 0
2 -1 -8 0
1 -3 -5 0
1 -7 -5 0
1 -5 0
-7 -8 0
-1 -8 0
2 -1 -8 0
1 0
2 -1 -6 -3 0
7 0
1 -7 -4 0
-6 -5 0
1 -4 -5 0
2 -1 -5 0
1 -6 0
-1 -8 0
2 -1 -3 0
2 -1 -4 0
2 -1 -4 -5 0
-1 -6 0
-6 -8 0
-4 -3 0
-1 -3 0
2 -1 -4 -8 0
-6 -7 0
1 -4 0
-1 -4 0
1 -4 -8 0
7 0
2 0
-7 -4 0
1 -6 -7 0
6 7 4 3 8 5 0
-7 -3 0
2 -1 -8 0
-7 -5 0
2 -1 -8 -5 0
7 0
2 0
1 -6 -4 0
2 -1 -5 0
1 -8 -5 0
2 -1 -4 -3 0
2 -1 -6 0
-6 -3 0
1 -6 -5 0
2 -1 -4 0
2 -1 -3 -8 0
7 3 5 0
1 -3 0
1 -4 -3 0
1 -6 -8 0
-8 -5 0
2 -1 -3 -5 0
-1 -4 0
1 -7 -3 0
1 -8 0
-4 -8 0
2 -1 -6 0
-4 -5 0
2 -1 -3 0
-1 -4 0
-3 -8 0
-3 -5 0
2 -1 -5 0
1 -7 0
7 0
-1 -6 0
-5 0
2 -1 -6 -5 0
2 -1 -6 -4 0
2 -1 -6 0
-3 0
1 -6 -3 0
2 -1 -3 0
-6 -4 0
-1 6 7 4 3 8 5 0
1 -7 -8 0
2 0
