p cnf 12 498
1 0
2 0
2 0
1 0
2 0
2 0
1 0
1 0
2 0
1 0
2 0
2 0
2 0
2 0
-4 -6 0
1 0
2 0
2 0
2 0
1 0
2 0
2 0
1 0
1 0
2 0
1 0
1 0
1 0
2 0
1 0
2 0
-7 -9 0
2 0
1 0
1 0
2 0
1 0
1 0
1 0
1 0
1 0
3 -8 0
1 0
2 0
1 0
2 0
-12 -9 0
1 0
1 0
2 0
1 0
-12 -10 0
-12 -11 0
1 0
2 0
1 0
2 0
-4 -8 0
1 0
1 0
2 0
2 0
2 0
1 0
1 0
-7 -10 0
2 0
1 0
2 0
2 0
1 0
2 0
2 0
1 0
1 0
1 0
1 0
1 0
1 0
1 0
1 0
1 0
1 0
1 0
-6 -8 0
2 0
1 0
2 0
1 0
1 0
1 0
2 0
2 0
-5 -11 0
2 0
2 0
3 -6 0
2 0
2 0
1 0
1 0
1 0
1 0
-7 -11 0
2 0
2 0
1 0
2 0
2 0
1 0
1 0
2 0
2 0
1 0
2 0
2 0
2 0
2 0
1 0
-10 -5 0
1 0
2 0
1 0
1 0
1 0
1 0
2 0
1 0
1 0
1 0
2 0
1 0
2 0
-9 -5 0
-4 -9 0
1 0
2 0
2 0
1 0
1 0
1 0
1 0
1 0
2 0
2 0
1 0
2 0
1 0
1 0
2 0
2 0
1 0
2 0
2 0
2 0
1 0
1 0
1 0
2 0
2 0
1 0
2 0
1 0
1 0
2 0
2 0
2 0
2 0
2 0
2 0
2 0
1 0
2 0
-4 -10 0
1 0
1 0
1 0
2 0
1 0
1 0
2 0
2 0
1 0
1 0
2 0
1 0
2 0
2 0
2 0
1 0
1 0
2 0
1 0
2 0
2 0
1 0
2 0
-12 -7 0
2 0
2 0
1 0
1 0
1 0
1 0
1 0
2 0
2 0
2 0
1 0
2 0
2 0
2 0
-8 -11 0
2 0
3 -9 0
2 0
1 0
1 0
2 0
2 0
-9 -8 0
2 0
2 0
2 0
1 0
1 0
-10 -8 0
2 0
2 0
1 0
3 -10 0
1 0
-4 -11 0
3 -11 0
1 0
2 0
2 0
1 0
2 0
2 0
1 0
1 0
1 0
-7 -5 0
1 0
2 0
1 0
2 0
2 0
1 0
1 0
-12 -5 0
1 0
2 0
1 0
1 0
1 0
2 0
-3 12 7 4 6 9 10 5 8 11 0
2 0
2 0
2 0
2 0
1 0
1 0
1 0
2 0
1 0
2 0
2 0
2 0
1 0
-6 -11 0
2 0
1 0
2 0
-12 -4 0
1 0
2 0
2 0
1 0
1 0
1 0
1 0
1 0
1 0
2 0
1 0
2 0
1 0
1 0
1 0
1 0
2 0
1 0
-6 -10 0
-6 -9 0
1 0
1 0
2 0
1 0
1 0
2 0
2 0
1 0
1 0
2 0
2 0
2 0
2 0
2 0
2 0
2 0
1 0
2 0
1 0
1 0
1 0
1 0
-12 -8 0
1 0
1 0
2 0
2 0
3 -12 0
2 0
1 0
2 0
2 0
2 0
2 0
1 0
-4 -5 0
2 0
1 0
1 0
2 0
1 0
2 -3 0
2 0
2 0
2 0
3 -7 0
1 0
1 0
1 0
2 0
2 0
1 0
1 0
1 0
-7 -4 0
2 0
1 0
2 0
2 0
2 0
1 0
2 0
1 0
1 0
1 0
1 0
1 0
2 0
2 0
1 0
2 0
1 0
1 0
2 0
-7 -8 0
1 0
1 0
1 0
2 0
-10 -11 0
1 0
1 0
1 0
1 0
1 0
1 0
2 0
1 0
2 0
2 0
2 0
1 0
2 0
2 0
1 0
1 0
-5 -8 0
1 0
1 0
3 -5 0
1 0
1 0
2 0
2 0
2 0
2 0
1 0
1 0
1 0
1 0
-9 -10 0
-12 -6 0
2 0
-9 -11 0
2 0
1 0
1 0
1 0
2 0
2 0
2 0
2 0
2 0
1 0
1 0
2 0
2 0
2 0
1 0
1 0
1 0
1 0
2 0
2 0
1 0
1 0
1 0
1 0
1 0
-2 3 0
2 0
1 0
2 0
1 0
2 0
2 0
1 0
2 0
1 0
3 -4 0
1 0
1 0
1 0
2 0
1 0
1 0
1 0
2 0
1 0
1 0
2 0
1 0
2 0
1 0
1 0
1 0
-7 -6 0
1 0
1 0
2 0
1 0
1 0
2 0
2 0
2 0
2 0
2 0
1 0
2 0
-6 -5 0
1 0
1 0
1 0
2 0
2 0
1 0
2 0
2 0
1 0
1 0
2 0
1 0
2 0
1 0
2 0
1 0
1 0
1 0
1 0
1 0
2 0
