p cnf 12 153
12 2 9 4 0
-9 0
1 -10 -4 0
-4 -11 0
1 -10 -9 0
1 -12 -10 0
1 -7 -12 0
-1 7 12 10 5 2 8 9 4 11 6 0
3 -1 -7 -5 0
-12 -10 0
1 0
1 -2 -8 0
1 -7 -5 0
-7 -2 0
3 -1 -5 -4 0
3 -1 -7 0
1 -10 0
-2 -9 0
-5 -6 0
1 -9 -4 0
1 -4 -11 0
1 -5 -9 0
12 9 11 0
-11 0
1 -10 -6 0
-9 -6 0
-1 -4 0
-9 -4 0
1 -2 -6 0
-7 -8 0
-12 -8 0
1 -5 -4 0
1 -10 -8 0
-10 -11 0
-5 -9 0
1 -7 -8 0
3 -1 -7 -4 0
1 -2 -11 0
-10 -2 0
1 -7 -2 0
3 -1 -2 -4 0
3 -1 -7 -6 0
1 -8 0
1 -7 -11 0
1 -9 -11 0
1 -7 -6 0
-11 -6 0
1 -5 -2 0
-4 -6 0
1 -4 0
-2 0
3 -1 -5 -8 0
1 0
1 -11 0
-7 -4 0
-9 0
3 0
-4 0
3 -1 -2 -8 0
7 12 10 5 2 8 9 4 11 6 0
1 -6 0
-8 -6 0
-10 -9 0
-7 -11 0
-8 -4 0
1 -12 -6 0
-1 -10 0
1 -7 -10 0
3 -1 -7 -8 0
-12 -9 0
3 -1 -4 -6 0
1 -12 -8 0
1 -9 0
-10 0
3 -1 -2 -6 0
1 -5 -8 0
-7 -12 0
1 -2 -4 0
1 -5 0
12 0
-5 -8 0
1 -11 -6 0
3 -1 -5 0
1 -10 -11 0
1 -2 -9 0
-10 -6 0
-8 -9 0
-8 -11 0
3 -1 -4 0
-10 -4 0
3 -1 -8 -4 0
-2 -6 0
-1 -7 0
1 -4 -6 0
1 -5 -6 0
3 -1 -8 -6 0
-10 -5 0
3 -1 -4 0
-5 -4 0
3 -1 -8 0
-12 -6 0
-1 -8 0
1 -5 -11 0
3 -1 -6 0
-10 -8 0
1 -12 -5 0
-2 -11 0
1 -12 -11 0
-12 -11 0
1 -9 -6 0
-12 -5 0
1 -10 -2 0
-1 -5 0
1 -10 -5 0
1 -2 0
-12 -2 0
1 -8 -11 0
1 0
3 -1 -2 0
1 -7 -9 0
-1 -5 0
3 -1 -5 -6 0
1 -7 -4 0
1 -12 -2 0
3 -1 -5 -2 0
-12 -4 0
1 -8 -6 0
-2 -8 0
3 -1 -7 0
12 2 9 6 0
-5 -2 0
-7 -6 0
-7 -9 0
1 -8 -4 0
1 -8 -9 0
-7 -5 0
7 12 10 5 2 8 9 4 11 6 0
-1 -5 0
-7 -10 0
3 -1 -7 -2 0
1 -12 -4 0
12 0
3 -1 -6 0
-2 -4 0
1 -7 0
-5 -11 0
1 -12 -9 0
1 -12 0
3 -1 -5 0
3 -1 -8 0
-9 -11 0
3 -1 -2 0
-1 -5 0
