p cnf 16 128
-6 10 -12 13 0
2 3 0
8 12 -16 0
8 10 15 -16 0
-1 -3 -10 0
7 -13 16 0
7 -11 -12 13 0
6 8 0
-11 -14 0
2 -14 0
-1 9 10 0
4 11 -12 0
3 5 -8 15 0
6 -10 12 -14 0
5 7 -9 11 0
-5 -7 -9 0
4 -5 -7 9 0
8 -9 0
-5 0
1 4 0
-1 0
9 -12 0
-7 -12 15 0
8 0
-1 4 -9 -10 0
-1 -8 10 0
4 7 9 0
-2 8 14 -16 0
-2 -5 -12 14 0
6 -7 -8 14 0
-7 -13 -15 0
-4 5 -14 16 0
-10 12 -13 -16 0
12 13 0
1 -5 -6 0
6 10 16 0
5 7 13 0
14 15 0
15 0
16 0
8 -16 0
5 7 12 -14 0
6 0
4 0
2 8 -12 0
4 6 11 16 0
-11 16 0
-2 -9 -10 -11 0
-8 -12 -13 14 0
1 -10 -13 0
8 12 -13 0
11 -13 15 0
-3 -5 -6 -14 0
-5 -12 0
-1 -10 16 0
11 0
2 -9 14 -15 0
-2 -10 -11 0
-2 3 5 0
2 4 0
3 5 -9 0
13 0
6 11 0
-1 -11 0
-1 9 -12 -14 0
-7 -13 0
9 -12 -15 0
-3 -10 0
3 -12 0
-3 10 -12 0
1 -7 0
-3 16 0
-1 4 5 10 0
7 -14 0
-4 -10 -11 -12 0
-8 -9 13 -14 0
-7 -10 0
-12 0
2 3 16 0
4 8 -13 0
11 -12 -14 0
-10 0
-2 -13 16 0
-7 -11 -12 0
-14 0
10 16 0
-3 -12 0
-1 13 0
-4 -7 -9 0
-5 -6 10 0
3 -9 0
3 10 12 0
3 -11 -13 -14 0
-2 4 6 -8 0
-2 -12 0
-7 16 0
3 0
2 0
1 13 -14 16 0
4 5 -6 -12 0
-3 -5 0
-2 6 -9 -16 0
2 7 -14 -16 0
1 -5 -15 0
3 -8 10 -11 0
-3 4 11 0
6 -9 14 0
1 3 -5 6 0
-3 -8 9 11 0
-12 -14 0
-7 0
15 -16 0
2 -3 7 14 0
2 -8 12 0
7 -9 16 0
-9 0
-2 -5 8 12 0
-4 8 0
-1 10 -12 13 0
-2 6 0
-4 -10 14 0
-3 -14 0
2 -7 -15 0
5 9 -10 0
-8 9 -11 15 0
-3 11 0
7 -8 13 0
-2 3 0
