p cnf 16 1024
-2 -5 7 -15 0
6 -14 -15 0
2 -4 -7 -15 0
7 0
7 -13 0
3 4 7 12 0
-4 -9 -11 -14 0
-3 6 -8 10 0
3 7 0
-2 3 -6 0
-9 -13 -15 0
10 0
-2 12 0
1 -5 16 0
-5 -15 0
-5 -15 0
3 4 7 12 0
7 0
2 7 10 0
-5 0
2 3 4 -10 0
5 6 9 10 0
-8 11 0
1 -8 -12 15 0
6 14 0
-4 -5 -13 0
9 10 -11 12 0
-2 0
4 -7 -11 0
7 -13 0
1 2 13 0
-3 5 -10 -11 0
-16 0
3 -5 -8 14 0
-1 -4 -6 0
-2 0
-2 -3 5 12 0
2 -5 -7 0
1 -6 -10 -12 0
1 -8 -12 15 0
7 -10 0
5 9 -11 0
-9 0
-12 -16 0
2 -9 -14 0
-1 3 5 0
-2 -5 10 -12 0
4 5 0
-1 -4 -6 0
-1 0
-5 -13 0
-8 9 13 0
-3 6 -8 10 0
-1 3 5 0
-9 -11 13 -16 0
-12 -16 0
2 -10 14 0
-6 0
-3 7 9 0
-4 5 14 0
-3 -7 -12 15 0
8 -10 -11 0
4 0
7 -10 0
-4 7 11 0
4 -7 -8 14 0
-1 0
-2 0
2 -9 -14 0
1 -5 16 0
3 5 -7 0
-1 5 16 0
-2 0
10 -13 0
-6 14 0
-2 7 12 16 0
-9 -13 -15 0
4 5 0
7 -13 0
-12 -16 0
-2 -5 7 -15 0
2 -9 -12 -16 0
3 -5 16 0
-9 0
5 9 -11 0
2 4 10 0
-7 -15 0
6 14 0
2 -4 -7 -15 0
2 -10 14 0
2 -9 -12 -16 0
-1 2 12 16 0
-12 0
6 -14 -15 0
-12 14 -15 0
-11 0
3 0
4 -7 -11 0
-3 5 -10 -11 0
3 4 7 12 0
-2 12 0
-6 -12 -16 0
1 5 11 -16 0
-1 -4 -5 0
-1 3 5 0
3 -6 0
1 3 -13 0
2 -5 -7 0
1 -5 16 0
-3 7 9 0
-3 5 -10 -11 0
-2 7 11 -13 0
10 0
-6 14 0
2 4 10 0
2 3 4 -10 0
9 10 -11 12 0
3 5 -7 0
8 -10 -11 0
-2 7 12 16 0
4 -7 -11 0
-11 0
3 -5 16 0
4 -7 -8 14 0
-5 0
-8 0
7 -15 0
-2 0
-1 0
-6 14 0
-3 -7 -12 15 0
-3 6 -8 10 0
7 0
-2 -12 0
-6 -7 8 -12 0
-12 0
4 5 0
5 -6 0
5 9 -11 0
-12 0
4 -7 -11 0
-15 0
-1 -3 10 -13 0
-2 3 -6 0
14 0
3 -6 0
2 3 4 -10 0
1 5 11 -16 0
-3 5 -10 -11 0
9 10 -11 12 0
1 2 13 0
-4 -5 -13 0
4 -7 -11 0
2 -10 14 0
-1 -4 -6 0
5 7 -8 0
-5 0
-12 0
-4 -9 -11 -14 0
-15 0
-7 -15 0
-2 7 12 16 0
-4 5 14 0
-2 7 11 -13 0
-11 0
10 0
5 9 -11 0
-16 0
-10 14 0
3 -6 0
5 7 16 0
6 14 0
7 -10 0
-1 -4 -6 0
10 -13 0
9 10 -11 12 0
-11 0
-4 7 11 0
-2 3 -6 0
-3 7 9 0
-2 -12 0
3 4 7 12 0
2 -5 -7 0
5 10 12 14 0
1 6 -7 10 0
4 -7 0
-7 -15 0
-2 -3 0
9 10 -11 12 0
1 7 -14 -16 0
-2 -12 0
5 9 -11 0
2 3 4 -10 0
4 -7 -8 14 0
-2 0
2 3 4 -10 0
-3 6 -8 10 0
-6 -12 -16 0
-1 2 12 16 0
-5 0
-1 5 16 0
3 8 9 0
7 -13 0
1 -6 -10 -12 0
1 5 11 -16 0
-8 0
2 -10 14 0
-3 7 9 0
-2 -3 0
-1 0
9 10 -11 12 0
-2 -5 10 -12 0
1 5 11 -16 0
3 4 7 12 0
3 -6 0
1 12 13 0
-6 -7 8 -12 0
3 7 0
5 9 -11 0
1 5 11 -16 0
3 4 7 12 0
-1 0
5 7 16 0
-1 0
-2 -5 10 -12 0
-4 5 14 0
3 -6 0
-3 -7 -12 15 0
-2 -3 5 12 0
7 -15 0
-4 7 11 0
1 -6 -10 -12 0
5 -6 0
-3 -7 -12 15 0
6 14 0
-5 -16 0
4 -5 -13 0
3 0
-4 5 14 0
9 10 -11 12 0
4 -7 -8 14 0
3 5 -7 0
4 -7 -8 14 0
-2 12 0
1 -8 -12 15 0
-5 -16 0
4 -7 0
-4 7 11 0
1 12 13 0
-2 7 12 16 0
-1 2 12 16 0
14 0
-12 -16 0
-3 7 9 0
-1 5 16 0
9 10 -11 12 0
5 -6 0
3 7 0
-9 -11 13 -16 0
10 -13 0
-5 -13 0
-8 11 0
-4 -5 -13 0
-6 -7 8 -12 0
-2 -3 5 12 0
-2 3 -6 0
4 -7 -8 14 0
2 4 10 0
3 4 7 12 0
1 12 13 0
-2 0
-6 14 0
-5 -16 0
-6 -12 -16 0
5 9 -11 0
4 0
-2 -5 10 -12 0
1 -6 -10 -12 0
-5 -16 0
1 12 13 0
-12 14 -15 0
1 -6 0
7 -15 0
3 -5 -8 14 0
1 5 11 -16 0
-2 -12 0
5 7 -8 0
5 6 9 10 0
-1 -4 -6 0
-2 -3 0
-3 6 -8 10 0
2 4 10 0
7 -13 0
1 2 13 0
9 10 -11 12 0
-5 -16 0
-2 0
-7 -15 0
6 -14 -15 0
4 -7 -8 14 0
-11 16 0
2 -5 -7 0
1 7 -14 -16 0
-6 0
6 14 0
7 -15 0
-3 6 -8 10 0
3 -5 -8 14 0
-1 3 5 0
-6 14 0
2 3 4 -10 0
2 -4 -7 -15 0
1 -6 -10 -12 0
-2 3 -6 0
6 14 0
-12 -16 0
4 0
-5 -16 0
3 7 0
3 8 9 0
5 7 16 0
1 7 -14 -16 0
-5 -15 0
-2 -3 5 12 0
-1 2 12 16 0
4 -7 0
2 3 4 -10 0
-4 -9 -11 -14 0
-1 5 16 0
2 7 10 0
3 8 9 0
-11 0
1 -6 0
3 -5 16 0
-3 5 -10 -11 0
5 7 16 0
-5 0
3 7 0
-1 -4 -5 0
2 -9 -12 -16 0
-8 11 0
5 -6 0
-2 -3 5 12 0
1 5 11 -16 0
9 10 -11 12 0
7 -10 0
-10 14 0
7 -10 0
-5 -15 0
4 -7 0
-10 14 0
-5 -16 0
-4 -9 -11 -14 0
4 -7 0
4 -7 -11 0
-7 -8 -10 16 0
-9 0
3 0
-3 6 -8 10 0
1 -3 -11 -14 0
-3 5 -10 -11 0
-2 7 12 16 0
6 -14 -15 0
-2 -5 7 -15 0
7 -15 0
10 -13 0
7 -15 0
-1 -4 -5 0
-4 5 14 0
-2 -3 0
2 4 10 0
4 -7 0
6 14 0
-6 -12 -16 0
1 -8 -12 15 0
-2 -5 7 -15 0
10 0
4 0
-1 3 5 0
-2 0
4 -5 -13 0
7 -15 0
-16 0
2 -9 -12 -16 0
-1 -4 -5 0
10 -13 0
3 -5 -8 14 0
-6 14 0
-9 -13 -15 0
4 -7 -8 14 0
-9 0
6 14 0
9 10 -11 12 0
-1 -3 10 -13 0
5 7 16 0
2 -10 14 0
-4 -9 -11 -14 0
-16 0
-3 6 -8 10 0
-10 14 0
1 2 13 0
-4 5 14 0
5 10 12 14 0
7 0
1 12 13 0
2 7 10 0
-6 14 0
-10 14 0
8 -10 -11 0
-6 -12 -16 0
-2 7 12 16 0
-6 14 0
10 0
-9 0
3 -6 0
2 -4 -7 -15 0
7 0
-1 0
3 0
-6 14 0
1 -8 -12 15 0
3 8 9 0
-2 -5 7 -15 0
3 5 -7 0
7 -13 0
-9 0
2 -4 -7 -15 0
-5 0
7 -15 0
7 -15 0
5 6 9 10 0
-2 12 0
2 7 10 0
2 -9 -14 0
2 -9 -14 0
-2 0
-1 -4 -6 0
6 -14 -15 0
-4 7 11 0
-6 14 0
-7 -15 0
5 10 12 14 0
3 5 -7 0
-12 14 -15 0
-4 -5 -13 0
9 14 0
-2 -7 8 13 0
5 7 16 0
5 6 9 10 0
-2 12 0
1 -6 9 -13 0
-2 -3 0
3 -6 0
-8 11 0
-9 -11 13 -16 0
2 -5 -7 0
1 2 13 0
-2 -5 7 -15 0
4 -5 -13 0
7 0
1 -8 -12 15 0
10 -13 0
6 -14 -15 0
3 4 7 12 0
-8 0
-6 -12 -16 0
-4 7 11 0
4 5 0
5 7 16 0
-6 -7 8 -12 0
1 -5 16 0
8 -10 -11 0
8 -10 -11 0
-2 -5 10 -12 0
-3 -7 -12 15 0
2 3 4 -10 0
4 5 0
-11 16 0
4 0
-1 5 16 0
5 9 -11 0
-1 -3 10 -13 0
7 0
7 -15 0
-8 11 0
1 -5 16 0
-9 -13 -15 0
-2 -7 8 13 0
3 0
7 -10 0
-3 5 -10 -11 0
-2 -3 5 12 0
-7 -8 -10 16 0
9 10 -11 12 0
-11 16 0
-4 5 14 0
-1 3 5 0
1 5 11 -16 0
-3 5 -10 -11 0
-6 -12 -16 0
-12 0
-6 -7 8 -12 0
-6 -7 8 -12 0
-1 -4 -5 0
-12 14 -15 0
3 -5 16 0
-2 0
6 14 0
7 -15 0
10 0
7 0
-6 -12 -16 0
-5 -13 0
7 -13 0
7 -15 0
-4 7 11 0
2 4 10 0
1 -6 9 -13 0
-5 -13 0
-6 -7 8 -12 0
4 -7 -8 14 0
1 -6 9 -13 0
5 -6 0
1 3 -13 0
4 0
-8 11 0
-2 3 -6 0
4 -7 -8 14 0
5 10 12 14 0
1 -6 0
-9 0
-3 -7 -12 15 0
1 -6 9 -13 0
5 6 9 10 0
5 9 -11 0
4 -7 -11 0
-7 -15 0
8 -10 -11 0
4 5 0
10 0
1 6 -7 10 0
6 14 0
9 10 -11 12 0
2 -9 -14 0
1 -6 0
-3 6 -8 10 0
-9 0
5 7 16 0
3 7 0
-1 3 5 0
4 -5 -13 0
-6 -12 -16 0
-6 14 0
4 5 0
-2 12 0
-6 0
6 -14 -15 0
3 0
7 -15 0
1 -6 0
4 5 0
1 7 -14 -16 0
3 8 9 0
-4 -5 -13 0
2 7 10 0
-11 0
3 -5 16 0
7 0
5 6 9 10 0
5 7 16 0
1 6 -7 10 0
-12 14 -15 0
2 -9 -14 0
3 -6 0
-3 6 -8 10 0
-1 0
2 -4 -7 -15 0
2 -9 -14 0
2 4 10 0
4 -7 0
-2 -7 8 13 0
-15 0
-6 14 0
7 -15 0
2 -10 14 0
-9 -13 -15 0
1 5 11 -16 0
1 -5 16 0
-2 12 0
-4 -5 -13 0
-2 3 -6 0
-16 0
-2 7 11 -13 0
-2 -3 0
8 -10 -11 0
1 3 -13 0
-4 -5 -13 0
-1 -3 10 -13 0
-8 0
-11 0
3 -5 -8 14 0
2 4 10 0
-4 -9 -11 -14 0
-5 -13 0
-5 -15 0
4 0
-5 0
9 10 -11 12 0
-5 0
-2 -5 7 -15 0
-2 3 -6 0
4 -5 -13 0
-9 -11 13 -16 0
1 -6 -10 -12 0
-6 0
-4 -5 -13 0
-2 -7 8 13 0
2 -5 -7 0
-9 0
9 14 0
5 9 -11 0
4 -5 -13 0
-12 -16 0
-6 -7 8 -12 0
-3 -7 -12 15 0
10 -13 0
-2 3 -6 0
-8 0
6 14 0
9 14 0
-7 -8 -10 16 0
-1 3 5 0
2 -5 -7 0
4 0
-5 -13 0
4 -7 -8 14 0
1 3 -13 0
-2 -5 7 -15 0
4 -7 0
-5 -16 0
-6 14 0
1 -3 -11 -14 0
-1 3 5 0
1 -6 -10 -12 0
-3 7 9 0
5 7 -8 0
-4 -5 -13 0
7 -15 0
7 0
1 3 -13 0
-9 -13 -15 0
-2 7 12 16 0
1 5 11 -16 0
-2 7 12 16 0
10 -13 0
1 2 13 0
-10 14 0
-4 -5 -13 0
-6 -7 8 -12 0
5 10 12 14 0
-9 -13 -15 0
5 9 -11 0
-15 0
7 -15 0
2 -9 -14 0
-2 7 12 16 0
3 -5 16 0
-3 6 -8 10 0
2 -10 14 0
-5 -16 0
1 2 13 0
10 0
1 -6 9 -13 0
1 6 -7 10 0
3 -6 0
1 6 -7 10 0
-10 14 0
-4 5 14 0
5 7 16 0
-6 -12 -16 0
1 -6 -10 -12 0
4 0
2 4 10 0
-11 16 0
1 3 -13 0
-5 0
4 -7 -8 14 0
-9 -11 13 -16 0
-2 -12 0
-2 -7 8 13 0
1 -6 0
5 6 9 10 0
-2 12 0
4 0
-2 -3 0
-2 -3 0
-6 0
-5 -13 0
1 -6 0
-4 -5 -13 0
-8 11 0
10 0
-16 0
-9 -11 13 -16 0
2 3 4 -10 0
4 5 0
-2 -3 0
5 -6 0
1 -3 -11 -14 0
7 0
-2 7 12 16 0
-2 -3 5 12 0
-4 5 14 0
-1 2 12 16 0
8 -10 -11 0
-12 -16 0
-3 6 -8 10 0
9 10 -11 12 0
-9 -11 13 -16 0
6 -14 -15 0
-4 5 14 0
10 -13 0
1 2 13 0
4 -7 -8 14 0
10 -13 0
5 -6 0
-12 -16 0
-2 -12 0
5 7 -8 0
1 -3 -11 -14 0
-8 0
-9 0
-2 0
2 -9 -14 0
2 -9 -14 0
-3 5 -10 -11 0
1 -6 -10 -12 0
1 7 -14 -16 0
-6 -12 -16 0
-1 0
4 -7 0
-8 0
-12 0
7 -13 0
8 -10 -11 0
2 7 10 0
-3 5 -10 -11 0
-11 16 0
2 -4 -7 -15 0
5 10 12 14 0
2 -9 -12 -16 0
2 -5 -7 0
4 5 0
-2 7 11 -13 0
-7 -8 -10 16 0
4 -7 -11 0
-5 0
1 7 -14 -16 0
-6 0
1 2 13 0
3 8 9 0
1 7 -14 -16 0
2 -10 14 0
-1 -4 -6 0
-3 7 9 0
-1 3 5 0
-2 -3 5 12 0
-16 0
7 -15 0
-5 0
-3 7 9 0
3 -6 0
-12 0
5 7 -8 0
6 -14 -15 0
-9 -13 -15 0
1 3 -13 0
-1 3 5 0
5 10 12 14 0
1 12 13 0
6 14 0
-2 -3 5 12 0
-2 -3 5 12 0
8 -10 -11 0
2 -10 14 0
1 -3 -11 -14 0
3 8 9 0
7 0
1 6 -7 10 0
1 2 13 0
2 -9 -14 0
-5 -13 0
7 0
5 6 9 10 0
3 8 9 0
4 -7 0
2 7 10 0
7 0
-8 9 13 0
3 8 9 0
-2 3 -6 0
7 -13 0
-8 0
-2 12 0
5 6 9 10 0
5 7 -8 0
-1 -4 -5 0
8 -10 -11 0
-9 -11 13 -16 0
1 -6 0
7 -13 0
4 5 0
3 -6 0
-11 16 0
-6 -7 8 -12 0
1 -3 -11 -14 0
-2 0
-4 -9 -11 -14 0
-9 -11 13 -16 0
-4 -9 -11 -14 0
-15 0
-6 14 0
5 7 -8 0
-6 -7 8 -12 0
-2 -3 5 12 0
-4 7 11 0
-5 0
1 12 13 0
-2 -7 8 13 0
-2 -3 5 12 0
-2 -7 8 13 0
1 3 -13 0
3 0
1 6 -7 10 0
-1 3 5 0
5 10 12 14 0
4 0
1 6 -7 10 0
-9 -13 -15 0
-6 14 0
-1 -4 -5 0
4 -7 -8 14 0
7 -15 0
-5 0
-6 0
-10 14 0
-5 -16 0
-9 0
10 0
1 -8 -12 15 0
1 7 -14 -16 0
-4 7 11 0
1 -8 -12 15 0
2 -9 -14 0
-1 -4 -6 0
2 -9 -12 -16 0
1 12 13 0
-6 14 0
3 -5 16 0
7 -15 0
3 8 9 0
10 0
4 -5 -13 0
-4 7 11 0
1 3 -13 0
14 0
-6 0
-12 14 -15 0
7 -10 0
-2 -5 10 -12 0
-1 5 16 0
5 7 -8 0
-9 -13 -15 0
4 -7 -11 0
10 -13 0
-1 5 16 0
2 -4 -7 -15 0
1 7 -14 -16 0
1 -8 -12 15 0
-9 0
9 10 -11 12 0
-1 5 16 0
-5 0
-8 0
-2 -3 5 12 0
3 -6 0
-2 -3 0
3 4 7 12 0
1 -3 -11 -14 0
3 -5 -8 14 0
5 7 16 0
-3 7 9 0
-11 16 0
9 14 0
-3 -7 -12 15 0
1 -6 -10 -12 0
-3 -7 -12 15 0
-4 -9 -11 -14 0
9 10 -11 12 0
1 6 -7 10 0
-2 -5 10 -12 0
-3 7 9 0
-5 -15 0
3 5 -7 0
7 -15 0
-2 3 -6 0
-6 -12 -16 0
-5 -15 0
-2 7 11 -13 0
3 8 9 0
1 7 -14 -16 0
3 4 7 12 0
10 -13 0
1 5 11 -16 0
-11 16 0
-6 0
5 7 -8 0
-4 7 11 0
-6 -12 -16 0
2 -10 14 0
1 -6 9 -13 0
3 5 -7 0
-1 0
2 -9 -12 -16 0
5 6 9 10 0
3 -6 0
3 4 7 12 0
-3 7 9 0
14 0
9 14 0
2 -5 -7 0
-3 -7 -12 15 0
1 3 -13 0
-1 0
2 -4 -7 -15 0
-2 -3 5 12 0
5 7 16 0
-2 7 11 -13 0
-6 -7 8 -12 0
-2 -12 0
-2 -7 8 13 0
-8 0
10 -13 0
2 -4 -7 -15 0
3 -6 0
9 10 -11 12 0
1 -6 -10 -12 0
7 -15 0
3 5 -7 0
1 5 11 -16 0
5 6 9 10 0
-8 11 0
-2 -3 0
-2 7 11 -13 0
-6 14 0
8 -10 -11 0
2 -9 -14 0
-5 0
-1 2 12 16 0
-7 -8 -10 16 0
3 -5 -8 14 0
3 7 0
-1 0
2 3 4 -10 0
-2 -5 10 -12 0
-4 -5 -13 0
5 9 -11 0
-15 0
4 5 0
1 -5 16 0
-8 9 13 0
-7 -8 -10 16 0
-6 -7 8 -12 0
-3 5 -10 -11 0
4 -7 0
-1 -4 -6 0
3 8 9 0
3 4 7 12 0
-2 -7 8 13 0
1 -6 -10 -12 0
-8 9 13 0
-2 -3 0
5 7 16 0
7 -13 0
1 -3 -11 -14 0
-7 -8 -10 16 0
9 14 0
-3 5 -10 -11 0
-1 -4 -6 0
-3 5 -10 -11 0
-2 12 0
1 -6 -10 -12 0
-6 -7 8 -12 0
-15 0
3 4 7 12 0
-5 -15 0
-10 14 0
-3 7 9 0
8 -10 -11 0
2 -9 -14 0
-4 5 14 0
-1 -4 -5 0
-1 -3 10 -13 0
-1 0
9 10 -11 12 0
-6 0
-11 0
-4 -9 -11 -14 0
14 0
5 6 9 10 0
1 7 -14 -16 0
5 -6 0
8 -10 -11 0
6 14 0
4 0
-3 6 -8 10 0
-2 12 0
-6 -12 -16 0
1 -6 0
-16 0
2 3 4 -10 0
2 -9 -12 -16 0
3 -6 0
1 7 -14 -16 0
