p cnf 16 47936
13 0
13 0
13 0
13 0
13 0
13 0
13 0
13 0
13 0
-5 -15 6 0
-14 -15 6 0
-6 -14 5 0
-14 5 -15 0
15 1 5 6 0
1 14 5 6 0
6 15 1 0
5 14 1 0
5 14 -1 0
-1 14 5 6 0
6 15 -1 0
-1 15 5 6 0
5 0
6 0
13 1 0
13 -1 0
13 0
13 0
13 0
2 8 0
2 8 0
2 8 0
2 8 0
2 8 0
2 8 0
2 8 0
2 8 0
2 8 0
2 8 0
2 0
2 0
2 0
2 0
2 0
2 8 0
2 8 0
2 8 0
2 8 0
2 8 0
2 0
2 0
2 0
2 0
2 0
5 14 6 0
5 14 0
6 15 5 0
5 0
6 15 0
6 0
5 0
6 0
10 0
10 0
4 1 0
4 -1 0
4 0
1 0
2 -16 -8 0
2 1 16 0
2 8 1 0
16 1 0
2 1 16 8 0
16 -1 0
-1 2 16 8 0
2 8 -1 0
-1 2 16 0
16 0
2 0
10 0
10 0
10 0
10 0
10 0
10 0
10 0
1 0
10 0
10 0
1 13 0
-1 13 0
13 0
2 0
3 0
3 0
3 0
3 9 0
2 0
2 0
2 8 0
3 0
2 8 0
2 0
3 0
3 9 0
2 0
2 0
3 0
2 0
2 8 0
3 9 0
3 0
2 8 0
2 0
3 0
3 9 0
3 0
2 0
13 0
7 0
2 0
13 0
2 8 13 0
13 0
2 8 0
7 0
7 0
2 0
13 2 0
13 2 0
13 0
2 8 13 0
7 0
13 0
2 0
7 0
2 8 0
7 0
2 8 0
13 0
7 0
13 0
2 0
13 2 0
2 8 13 0
7 0
13 0
2 8 0
2 8 13 0
2 0
13 2 0
7 0
13 0
13 0
2 0
7 0
-8 2 0
2 8 1 0
2 8 -1 0
2 0
1 0
13 -1 0
13 -1 0
13 0
13 0
10 1 0
10 -1 0
10 0
7 1 0
7 -1 0
7 0
-8 2 0
2 8 1 0
2 8 -1 0
2 0
1 4 0
-1 4 0
4 0
13 0
2 0
-8 0
13 0
2 0
-8 0
13 0
13 0
13 0
13 0
13 0
-8 0
2 0
13 0
-8 0
2 0
13 0
13 0
13 0
13 0
13 0
10 0
-14 -15 6 0
-14 5 -15 0
-6 -14 5 0
-5 -15 6 0
6 15 1 0
1 14 5 6 0
5 14 1 0
15 1 5 6 0
-1 14 5 6 0
5 14 -1 0
-1 15 5 6 0
6 15 -1 0
5 0
6 0
-8 2 0
2 8 1 0
2 8 -1 0
2 0
2 -13 -4 -8 0
4 2 1 0
2 4 1 8 13 0
2 4 1 13 0
2 4 1 8 0
13 2 1 0
2 1 8 13 0
4 1 0
13 4 1 0
13 1 0
2 8 1 0
-1 2 4 8 0
4 2 -1 0
13 -1 0
-1 2 8 13 0
-1 2 4 13 0
4 -1 0
13 2 -1 0
-1 2 4 8 13 0
2 8 -1 0
13 4 -1 0
13 0
2 0
4 0
10 1 0
10 -1 0
10 0
2 8 0
2 8 0
-8 2 0
2 8 1 0
2 8 -1 0
2 0
10 0
10 0
10 0
2 0
10 0
2 0
10 0
2 8 0
2 0
2 8 0
10 0
10 0
10 0
2 0
2 8 0
10 0
2 0
10 0
2 8 0
10 0
2 0
10 0
3 0
12 0
7 0
3 0
12 0
7 0
12 0
12 3 0
3 9 0
7 0
3 9 12 0
3 9 12 0
3 9 0
12 0
12 3 0
3 0
7 0
7 0
12 0
12 3 0
7 0
12 0
12 0
7 0
3 9 12 0
3 0
3 9 0
12 0
7 0
3 9 12 0
12 0
3 9 0
12 3 0
3 0
7 0
7 0
3 0
12 0
2 0
3 0
3 9 0
2 8 0
2 0
3 0
2 8 3 0
3 9 2 0
2 8 3 0
2 8 0
3 9 0
3 0
2 0
3 9 2 0
3 9 0
2 0
2 8 3 0
3 0
3 9 2 0
2 8 0
2 8 0
2 0
3 9 0
3 0
2 0
3 0
4 0
4 0
4 0
4 0
4 0
4 0
4 0
4 0
4 0
4 0
13 0
13 0
13 0
13 0
4 0
4 0
7 0
7 0
7 0
7 0
3 0
2 0
3 9 2 0
2 0
2 8 3 0
3 9 0
2 8 0
3 0
2 8 0
2 8 3 0
2 0
3 0
3 9 0
3 9 2 0
3 9 2 0
2 8 3 0
2 8 0
3 9 0
2 0
3 0
3 0
2 8 0
2 8 3 0
3 9 2 0
2 0
3 9 0
3 9 0
3 0
2 8 0
2 0
2 0
3 0
-6 -14 5 0
-14 5 -15 0
-5 -15 6 0
-14 -15 6 0
5 14 1 0
15 1 5 6 0
1 14 5 6 0
6 15 1 0
5 14 -1 0
6 15 -1 0
-1 15 5 6 0
-1 14 5 6 0
5 0
6 0
-8 2 0
2 8 1 0
2 8 -1 0
2 0
3 0
7 0
12 0
12 0
3 12 9 0
12 0
7 0
7 3 12 0
3 9 0
7 3 0
7 3 9 0
7 0
7 3 12 9 0
3 0
7 0
12 0
12 7 0
3 0
7 12 0
12 3 0
7 0
7 3 0
12 0
7 3 12 0
12 0
7 0
3 0
3 9 0
3 0
12 7 0
3 12 9 0
12 0
12 3 0
7 3 12 9 0
7 0
7 12 0
7 3 9 0
7 3 12 9 0
7 12 0
7 0
7 3 9 0
12 0
7 3 0
3 0
3 0
12 0
7 3 12 0
7 0
3 12 9 0
7 0
12 7 0
12 3 0
12 0
3 9 0
7 12 0
7 3 9 0
3 12 9 0
3 0
7 0
12 7 0
3 9 0
7 3 12 9 0
12 0
7 0
7 3 12 0
12 3 0
7 0
3 0
12 0
12 0
7 3 0
7 0
12 0
3 0
1 10 0
-1 10 0
10 0
2 0
3 0
3 0
3 9 2 0
2 0
2 8 3 0
3 9 0
2 8 0
3 0
2 8 0
3 9 0
2 8 3 0
3 9 2 0
2 0
3 0
2 0
3 9 0
3 9 2 0
2 8 0
2 8 3 0
2 8 0
3 9 0
3 0
2 0
3 0
2 0
10 0
10 0
1 13 0
1 4 0
-1 13 0
-1 4 0
13 0
4 0
3 0
2 0
2 8 0
2 8 3 0
2 0
3 0
3 9 0
3 9 2 0
12 0
3 0
3 0
2 8 0
7 0
7 0
3 9 0
2 8 3 0
12 0
3 9 0
12 3 0
3 12 9 0
3 9 2 0
2 0
12 0
3 9 0
2 0
3 12 9 0
12 0
3 0
3 9 2 0
3 0
3 9 0
2 8 3 0
12 3 0
2 8 0
7 0
7 0
2 0
2 8 3 0
3 0
3 9 2 0
2 8 0
3 9 0
3 0
2 8 0
3 0
7 0
3 12 9 0
12 0
3 9 0
12 0
2 0
7 0
12 3 0
3 9 0
2 0
3 0
3 0
12 0
7 0
3 12 9 0
7 3 9 0
7 3 12 9 0
7 0
3 0
3 0
12 7 0
7 0
7 3 0
12 0
12 3 0
7 3 12 0
7 0
7 12 0
3 9 0
12 0
12 0
7 3 12 9 0
3 0
7 0
12 7 0
7 0
12 0
7 3 12 0
7 0
12 0
3 9 0
12 0
7 12 0
12 3 0
3 0
7 3 9 0
7 3 0
3 12 9 0
12 3 0
7 0
7 3 9 0
3 0
3 12 9 0
7 3 12 0
7 3 12 9 0
3 0
12 0
12 0
7 0
12 0
3 9 0
7 12 0
7 3 0
12 7 0
7 0
7 0
7 3 12 0
7 3 0
3 9 0
7 12 0
12 0
7 3 9 0
3 0
3 0
12 0
12 7 0
3 12 9 0
12 0
7 3 12 9 0
7 0
7 0
12 3 0
3 0
12 0
7 0
2 0
3 0
3 9 2 0
2 8 0
3 9 0
2 0
3 0
2 8 3 0
2 0
2 8 3 0
3 9 0
3 9 2 0
3 0
2 8 0
3 0
3 9 2 0
2 8 3 0
3 9 0
2 8 0
2 0
2 8 0
3 0
3 9 0
2 0
2 0
3 0
16 1 0
16 -1 0
16 0
5 14 0
5 0
6 15 5 0
6 0
6 15 0
5 14 6 0
1 4 0
-1 4 0
4 0
13 0
13 0
4 0
4 0
4 0
4 0
4 0
4 0
4 0
4 0
4 0
4 0
4 0
4 0
4 0
4 0
4 0
4 0
4 0
3 -9 0
3 9 0
3 0
3 9 1 0
3 0
3 9 0
3 9 -1 0
3 0
7 1 0
7 -1 0
7 0
2 0
4 0
3 0
2 8 4 0
4 2 0
2 0
3 9 0
3 0
2 8 0
4 0
4 0
2 0
2 8 0
4 2 0
2 8 4 0
4 0
3 9 0
4 0
3 0
2 0
3 9 0
4 0
2 8 0
3 0
4 0
4 2 0
2 8 4 0
3 0
3 9 0
4 0
4 2 0
4 0
2 8 4 0
2 0
2 8 0
4 0
2 0
3 0
10 1 0
10 -1 0
10 0
6 15 5 0
6 0
5 14 6 0
5 14 0
6 15 0
5 0
6 0
5 0
7 0
7 0
7 0
1 0
1 0
4 1 0
4 -1 0
4 0
13 0
4 0
13 0
4 0
13 0
4 0
4 0
13 0
4 0
13 0
4 0
13 0
4 0
13 0
13 0
4 0
13 0
4 0
13 0
13 0
2 -8 0
2 8 1 0
2 8 -1 0
2 0
10 0
10 0
10 0
10 0
1 10 0
-1 10 0
10 0
3 0
2 0
3 9 0
3 9 2 0
2 8 0
3 0
2 8 3 0
2 0
2 8 3 0
3 9 0
3 9 2 0
2 0
2 8 0
3 0
2 8 0
2 8 3 0
3 9 0
2 0
3 0
3 9 2 0
3 9 0
2 8 3 0
3 0
2 0
2 8 0
3 9 2 0
3 9 2 0
2 8 3 0
3 9 0
2 8 0
2 0
3 0
3 0
2 0
16 0
16 0
16 0
16 0
16 0
3 9 0
3 0
-8 0
2 0
13 0
-8 0
2 0
13 0
16 1 0
16 -1 0
16 0
12 0
7 0
3 0
3 0
3 0
12 0
7 0
12 3 0
7 0
12 0
12 0
12 7 0
7 3 12 9 0
7 3 12 0
3 12 9 0
7 3 9 0
7 3 0
3 9 0
7 12 0
7 0
12 0
7 3 9 0
7 0
3 9 0
7 0
7 3 12 9 0
12 3 0
7 12 0
7 3 12 0
12 0
3 0
12 7 0
7 3 0
3 0
7 0
12 0
3 12 9 0
7 3 9 0
3 0
12 0
3 12 9 0
12 3 0
7 12 0
7 3 12 0
7 0
3 9 0
12 0
3 0
7 0
7 3 0
7 0
7 3 12 9 0
12 7 0
12 0
3 0
7 0
7 3 12 0
12 0
7 3 12 9 0
12 0
3 9 0
7 0
12 3 0
7 3 0
7 3 9 0
7 0
3 12 9 0
3 0
7 12 0
12 0
12 7 0
7 0
12 0
3 0
1 0
-8 2 0
2 8 1 0
2 8 -1 0
2 0
1 0
1 0
1 0
13 1 0
13 -1 0
13 0
1 10 0
-1 10 0
10 0
1 10 0
-1 10 0
10 0
7 1 0
7 -1 0
7 0
13 0
13 0
1 13 0
-1 13 0
13 0
10 0
10 0
4 0
4 0
4 0
4 0
10 1 0
10 -1 0
10 0
3 0
2 0
2 8 0
3 9 0
3 9 2 0
2 0
3 0
2 8 3 0
3 0
2 0
3 9 0
3 9 2 0
2 8 0
2 8 3 0
2 0
3 9 0
2 8 0
3 0
3 9 2 0
2 8 3 0
3 0
3 9 0
2 0
2 8 0
2 0
3 0
10 1 0
10 -1 0
10 0
2 0
3 0
2 0
3 9 0
7 3 0
2 8 3 0
2 8 0
7 0
12 0
7 3 12 9 0
2 8 0
2 4 0
2 8 0
7 3 9 0
2 0
3 0
12 0
3 0
4 0
3 0
7 3 12 0
3 0
3 12 9 0
12 0
7 0
7 0
3 12 0
3 9 0
7 12 0
3 9 2 0
4 0
2 4 8 0
7 12 0
2 0
4 0
2 0
3 9 0
12 0
2 8 0
3 0
7 0
7 0
7 3 12 9 0
2 8 0
2 4 8 0
12 0
3 12 0
3 9 0
7 12 0
7 3 12 0
2 0
2 0
4 0
12 0
2 8 0
2 0
3 0
4 0
7 12 0
3 12 9 0
4 0
7 0
7 3 0
3 0
2 4 0
3 9 0
2 8 3 0
3 0
3 9 0
3 9 2 0
7 3 9 0
2 0
3 9 0
2 8 0
2 0
7 0
3 0
3 0
3 9 2 0
2 8 3 0
2 0
12 0
3 0
4 0
2 4 8 0
7 0
3 9 0
7 12 0
3 0
2 8 0
4 0
4 0
2 8 0
2 8 0
2 0
12 0
2 0
7 3 0
7 3 12 0
12 0
7 0
2 0
7 0
7 3 9 0
3 9 0
2 0
3 0
3 0
7 12 0
3 9 0
7 3 12 9 0
2 4 0
3 12 9 0
12 0
3 12 0
12 0
7 0
3 0
2 0
2 0
3 0
10 1 0
10 -1 0
10 0
3 9 0
3 9 0
3 9 0
3 9 0
3 -1 0
-1 3 0
3 9 0
3 9 0
3 0
3 0
1 10 0
-1 10 0
10 0
3 0
3 9 0
3 0
3 9 0
3 0
3 9 0
3 0
3 9 0
3 0
3 0
16 1 0
16 -1 0
16 0
1 0
13 -1 0
13 -1 0
13 0
13 0
4 0
4 0
4 0
4 0
4 0
4 0
4 0
4 0
10 1 0
10 -1 0
10 0
7 0
7 10 0
7 0
10 7 0
10 0
10 0
7 0
7 10 0
7 0
10 7 0
10 0
10 0
4 0
4 0
4 0
4 0
4 0
4 0
4 0
4 0
4 0
4 0
4 0
4 0
4 0
4 0
4 0
4 0
4 0
1 0
4 0
10 0
10 0
10 0
10 0
4 0
4 0
10 0
4 0
4 0
10 0
10 0
10 0
10 0
4 0
4 0
10 0
4 0
10 0
10 0
10 0
4 0
1 0
7 0
12 0
3 0
12 0
12 7 0
7 12 0
3 0
7 0
7 3 12 9 0
12 0
3 12 9 0
7 3 12 0
12 0
3 0
3 9 0
7 3 9 0
7 3 0
7 0
12 3 0
7 0
12 0
7 12 0
3 0
3 0
7 0
3 9 0
12 7 0
7 3 12 9 0
12 3 0
3 12 9 0
12 0
12 0
7 3 0
7 3 12 0
7 3 9 0
7 0
7 0
7 0
12 7 0
7 3 9 0
12 0
7 0
12 0
7 0
3 0
12 0
7 3 0
7 12 0
12 3 0
7 3 12 0
7 3 12 9 0
3 9 0
3 0
3 12 9 0
12 0
7 3 9 0
7 12 0
3 9 0
7 3 12 9 0
7 3 0
3 12 9 0
3 0
7 3 12 0
12 0
12 0
3 0
7 0
12 7 0
7 0
7 0
12 3 0
12 0
3 0
7 0
4 1 0
4 -1 0
4 0
16 0
16 0
16 0
1 0
1 0
16 1 0
16 -1 0
16 0
4 0
4 0
4 0
4 0
4 0
4 0
4 0
4 0
4 0
1 10 0
-1 10 0
10 0
2 -7 -13 -8 0
2 7 1 8 13 0
2 7 1 0
2 8 1 0
2 7 1 8 0
13 1 0
2 7 1 13 0
7 1 13 0
13 7 1 0
13 2 1 0
7 1 0
2 1 8 13 0
2 8 -1 0
7 -1 0
13 -1 0
-1 2 7 8 0
-1 2 8 13 0
-1 7 13 0
-1 2 7 0
-1 2 7 13 0
-1 2 7 8 13 0
13 2 -1 0
13 7 -1 0
13 0
2 0
7 0
3 0
12 0
7 0
7 3 12 0
7 3 9 0
3 9 0
7 0
12 7 0
12 0
7 12 0
12 0
12 3 0
7 0
3 0
3 12 9 0
12 0
7 3 0
3 0
7 3 12 9 0
7 0
7 0
3 9 0
3 0
7 0
12 0
12 0
12 7 0
7 3 12 0
12 0
7 3 0
7 12 0
12 3 0
7 3 12 9 0
7 3 9 0
3 0
3 12 9 0
7 0
7 3 12 9 0
12 7 0
7 0
7 3 0
12 3 0
12 0
7 0
3 0
7 3 9 0
3 0
12 0
7 0
3 9 0
12 0
7 3 12 0
3 12 9 0
7 12 0
12 0
7 3 12 0
7 3 0
7 0
7 0
12 0
12 3 0
7 3 12 9 0
7 3 9 0
3 12 9 0
3 0
7 0
12 7 0
3 9 0
3 0
7 12 0
12 0
3 0
7 0
12 0
7 1 0
7 -1 0
7 0
7 0
7 0
1 0
2 0
3 0
4 0
3 9 0
3 0
2 0
4 2 0
4 0
2 8 0
2 8 4 0
4 0
3 9 0
4 0
4 2 0
2 8 4 0
2 8 0
3 0
4 0
2 0
2 0
2 8 0
2 8 4 0
3 9 0
4 0
4 0
3 0
4 2 0
2 8 0
2 8 4 0
4 0
2 0
4 0
3 9 0
3 0
4 2 0
12 0
7 3 9 0
7 3 12 9 0
2 8 11 0
7 0
3 9 0
3 12 0
7 0
2 11 0
3 9 0
7 12 0
2 0
12 0
2 8 0
3 0
11 0
3 0
3 12 9 0
7 12 0
11 0
7 3 0
12 0
3 0
11 0
7 3 12 0
7 0
2 0
7 12 0
7 0
3 9 0
12 0
7 0
3 12 0
2 11 0
7 3 0
11 0
12 0
2 8 11 0
12 0
7 0
3 12 9 0
2 0
3 9 0
7 12 0
3 0
7 3 12 9 0
7 3 12 0
2 0
11 0
2 8 0
11 0
3 0
7 3 9 0
3 0
1 4 0
-1 4 0
4 0
5 0
5 14 6 0
5 14 0
6 0
6 15 5 0
6 15 0
6 0
5 0
1 0
13 0
-8 0
2 0
13 0
-8 0
2 0
13 0
1 4 0
-1 4 0
4 0
16 1 0
16 -1 0
16 0
7 0
7 0
7 0
7 0
7 0
7 0
7 0
7 0
7 0
7 0
7 0
7 0
7 0
7 0
7 0
7 0
7 0
7 0
7 0
7 0
7 0
7 0
7 0
7 0
7 0
7 0
7 0
7 0
7 0
7 0
7 0
7 0
7 0
7 0
7 0
7 0
7 0
7 0
7 0
10 1 0
10 -1 0
10 0
2 0
3 0
2 0
3 0
4 0
3 9 0
4 0
2 8 3 0
12 0
2 8 0
7 0
2 4 8 0
7 0
7 12 0
3 0
3 0
2 0
7 12 0
12 0
3 12 0
2 8 0
3 12 9 0
4 0
3 0
7 3 12 0
3 9 0
7 3 0
2 4 0
3 9 2 0
7 3 9 0
12 0
3 9 0
2 0
7 3 12 9 0
2 0
2 8 0
7 0
3 12 0
2 0
4 0
2 0
7 12 0
2 0
3 9 2 0
2 4 8 0
4 0
12 0
3 0
7 3 9 0
7 3 12 9 0
2 8 0
7 12 0
2 4 0
3 0
3 9 0
2 8 3 0
7 3 0
7 3 12 0
7 0
2 0
3 0
7 0
12 0
2 8 0
2 8 0
7 0
3 9 0
3 0
3 12 9 0
4 0
12 0
3 9 0
2 0
3 9 2 0
2 8 0
7 0
3 0
2 8 3 0
3 9 0
3 0
2 0
12 0
2 0
12 0
2 8 0
3 0
7 12 0
7 0
3 9 0
2 4 0
2 8 0
7 3 12 9 0
2 0
2 4 8 0
7 0
7 3 12 0
3 0
4 0
7 0
2 0
3 0
4 0
3 12 0
3 9 0
7 3 0
4 0
7 12 0
3 9 0
7 3 9 0
2 8 0
2 0
3 12 9 0
3 0
12 0
12 0
3 0
12 0
2 0
3 0
2 0
7 0
11 0
7 0
3 0
12 0
2 0
7 3 12 9 0
3 0
12 0
11 0
3 12 9 0
11 0
7 0
7 3 12 0
7 3 9 0
3 0
2 8 0
2 8 11 0
7 3 0
7 0
3 9 0
11 2 0
7 0
12 7 0
12 3 0
7 12 0
2 0
12 0
11 0
2 0
12 0
7 3 0
7 0
7 3 12 0
7 0
11 0
12 0
12 7 0
3 0
3 12 9 0
2 0
7 12 0
2 0
11 0
7 3 12 9 0
12 0
3 0
11 2 0
7 3 9 0
12 0
3 9 0
11 0
7 0
2 8 11 0
12 3 0
2 8 0
3 0
7 0
2 8 0
7 0
2 0
7 3 0
12 3 0
7 3 12 9 0
11 2 0
12 0
3 9 0
12 0
7 3 12 0
2 8 11 0
3 12 9 0
2 0
3 0
11 0
12 0
11 0
7 0
12 7 0
7 3 9 0
11 0
7 12 0
7 3 12 9 0
11 0
11 0
3 0
7 0
7 3 0
2 8 0
11 2 0
7 12 0
7 0
7 3 12 0
12 7 0
12 0
11 0
2 8 11 0
2 0
3 9 0
3 0
12 0
7 0
7 3 9 0
12 3 0
3 12 9 0
12 0
2 0
2 0
11 0
7 0
3 0
12 0
14 5 6 0
5 14 0
15 5 6 0
6 15 0
14 5 6 0
5 14 0
15 5 6 0
6 15 0
13 0
13 0
13 0
13 0
13 0
13 0
13 0
13 0
13 0
13 0
13 0
13 0
13 0
4 0
4 0
6 15 0
6 15 5 0
5 14 0
5 0
5 14 6 0
6 0
5 14 6 0
6 15 0
5 14 0
6 0
6 15 5 0
5 0
5 14 6 0
6 15 0
5 14 0
6 0
6 15 5 0
5 0
3 0
2 0
3 9 0
2 8 3 0
3 0
3 9 2 0
2 0
2 8 0
3 9 2 0
3 0
3 9 0
2 8 0
2 8 3 0
2 0
2 8 0
3 9 0
3 0
2 0
3 9 2 0
2 8 3 0
3 9 2 0
2 8 0
3 0
2 8 3 0
2 0
3 9 0
3 9 0
2 0
3 0
2 8 0
3 0
2 0
-5 -15 6 0
-14 5 -15 0
-6 -14 5 0
-14 -15 6 0
6 15 1 0
15 1 5 6 0
1 14 5 6 0
5 14 1 0
5 14 -1 0
-1 14 5 6 0
6 15 -1 0
-1 15 5 6 0
5 0
6 0
16 0
16 0
16 0
16 0
16 0
16 0
16 0
16 0
16 0
3 -9 0
3 0
3 9 0
3 0
3 9 0
3 9 0
3 0
3 9 0
3 0
3 0
3 0
2 0
2 8 0
3 9 2 0
2 0
3 9 0
3 0
2 8 3 0
3 9 0
3 0
2 8 3 0
2 0
2 8 0
3 9 2 0
3 0
2 8 0
3 9 0
3 9 2 0
2 8 3 0
2 0
3 0
2 8 0
2 0
3 9 0
3 0
2 0
4 1 0
4 -1 0
4 0
2 -13 -8 0
13 2 1 0
13 1 0
2 1 8 13 0
2 8 1 0
2 8 -1 0
13 -1 0
13 2 -1 0
-1 2 8 13 0
2 0
13 0
1 0
4 1 0
4 -1 0
4 0
10 0
10 0
-9 1 0
-3 -9 0
1 -3 13 0
-1 -9 13 0
-1 -3 13 0
-9 13 0
-3 13 0
10 0
10 0
10 0
10 0
10 0
10 0
10 0
10 0
10 0
10 0
10 0
10 0
10 0
10 0
10 0
10 0
10 0
10 0
10 0
10 0
10 0
10 0
10 0
10 0
10 0
4 0
4 0
4 0
4 0
4 0
4 0
4 0
4 0
4 0
10 0
10 0
12 0
3 0
7 0
2 0
7 0
2 0
12 7 0
7 0
12 3 0
12 0
7 3 12 9 0
3 9 0
3 12 9 0
7 3 12 0
7 12 0
12 0
12 0
7 3 0
3 0
7 3 9 0
2 8 0
7 0
3 0
7 3 12 9 0
2 8 0
3 0
7 3 9 0
7 0
7 0
3 0
7 12 0
3 12 9 0
7 3 12 0
12 7 0
7 0
3 9 0
12 0
12 3 0
12 0
2 0
12 0
7 3 0
3 9 0
7 0
3 0
7 3 9 0
7 3 12 9 0
3 0
3 12 9 0
12 0
7 0
12 0
12 0
2 0
12 3 0
7 3 0
7 12 0
7 0
12 7 0
7 3 12 0
2 8 0
3 12 9 0
12 3 0
2 0
12 0
7 3 12 9 0
2 8 0
7 0
7 3 9 0
3 0
7 12 0
12 0
7 0
3 9 0
12 0
7 0
7 3 0
3 0
12 7 0
7 3 12 0
7 0
12 0
2 0
3 0
1 0
10 0
10 0
10 0
10 0
7 1 0
7 -1 0
7 0
6 0
5 14 6 0
5 0
6 15 5 0
5 14 0
6 15 0
6 0
5 0
10 0
10 0
10 0
10 0
10 0
10 0
10 0
10 0
10 0
10 0
10 0
10 0
10 0
10 0
10 0
10 0
10 0
10 0
13 0
13 0
13 0
1 0
1 0
1 4 0
-1 4 0
4 0
1 10 0
-1 10 0
10 0
-8 2 0
2 8 1 0
2 8 -1 0
2 0
10 0
10 0
10 0
10 0
16 7 0
7 0
16 0
7 16 0
16 7 0
7 0
16 0
7 16 0
4 0
4 0
4 0
-8 2 0
2 8 1 0
2 8 -1 0
2 0
10 1 0
10 -1 0
10 0
13 0
13 0
13 0
13 0
1 0
1 0
5 14 0
6 15 0
5 14 6 0
6 15 5 0
5 14 0
6 15 0
5 14 6 0
6 15 5 0
10 0
10 0
1 4 0
-1 4 0
4 0
7 1 0
7 -1 0
7 0
2 0
3 0
3 0
2 8 0
3 9 2 0
2 8 3 0
2 0
3 9 0
3 9 0
2 8 3 0
2 0
3 9 2 0
2 8 0
3 0
2 0
3 9 2 0
3 0
3 9 0
2 8 3 0
2 8 0
3 9 2 0
2 0
3 9 0
3 0
2 8 3 0
2 8 0
2 0
2 8 0
3 0
3 9 0
3 0
2 0
1 4 0
-1 4 0
4 0
7 1 0
7 -1 0
7 0
1 0
10 1 0
10 -1 0
10 0
10 0
10 0
10 0
10 0
10 0
10 0
10 0
10 0
10 0
2 -16 -8 0
2 8 1 0
2 1 16 8 0
16 1 0
2 1 16 0
-1 2 16 0
2 8 -1 0
-1 2 16 8 0
16 -1 0
16 0
2 0
1 0
7 1 0
7 -1 0
7 0
1 0
4 -1 0
4 -1 0
4 0
4 0
1 4 0
-1 4 0
4 0
3 0
2 0
3 9 2 0
3 0
2 8 3 0
2 0
2 8 0
3 9 0
2 8 0
3 9 2 0
3 9 0
2 8 3 0
3 0
2 0
3 9 0
2 8 3 0
3 9 2 0
2 8 0
2 0
3 0
3 9 0
2 0
2 8 3 0
2 8 0
3 9 2 0
3 0
3 9 0
2 8 0
2 0
3 0
3 0
2 0
16 1 0
16 -1 0
16 0
7 0
10 0
7 0
7 0
10 0
10 0
7 0
7 0
10 0
10 0
10 0
7 0
10 0
7 0
10 0
7 0
7 0
10 0
10 0
7 0
1 4 0
-1 4 0
4 0
10 1 0
10 -1 0
10 0
6 0
6 15 0
5 14 0
6 15 5 0
5 0
5 14 6 0
4 0
4 0
4 0
4 0
4 0
4 0
16 0
16 0
16 0
16 0
16 0
16 0
16 0
16 0
16 0
10 0
10 0
16 0
16 0
7 0
7 0
13 0
13 0
13 0
13 0
7 1 0
7 -1 0
7 0
5 0
6 0
6 15 5 0
5 14 0
6 15 0
5 14 6 0
6 0
5 0
7 0
7 0
7 0
7 0
10 0
10 0
10 0
10 0
10 0
10 0
10 0
10 0
10 0
10 0
1 4 0
-1 4 0
4 0
-8 2 0
2 8 1 0
2 8 -1 0
2 0
12 0
7 0
3 0
7 3 0
7 12 0
7 0
7 0
7 3 12 9 0
7 0
7 3 9 0
12 3 0
3 0
12 7 0
3 12 9 0
12 0
7 3 12 0
12 0
3 9 0
3 0
12 0
7 3 12 0
7 12 0
12 7 0
12 3 0
12 0
12 0
3 0
12 0
7 3 9 0
7 0
3 9 0
7 0
3 0
3 12 9 0
7 3 12 9 0
7 3 0
7 0
3 0
12 0
7 3 0
7 0
7 0
12 3 0
7 3 9 0
3 12 9 0
12 0
3 9 0
7 12 0
12 0
3 0
7 3 12 9 0
7 3 12 0
12 7 0
7 0
7 0
3 9 0
3 0
12 3 0
7 3 12 9 0
7 0
3 12 9 0
12 7 0
7 3 0
12 0
3 0
7 0
7 12 0
12 0
12 0
7 3 9 0
7 3 12 0
3 0
12 0
7 0
3 -9 0
3 9 0
3 0
3 0
3 9 0
3 9 0
3 0
3 9 0
3 0
3 0
16 0
16 0
1 0
10 0
10 0
13 0
2 -8 0
2 8 1 0
2 8 -1 0
2 0
7 0
2 0
3 0
12 0
11 0
2 0
11 0
3 0
7 0
2 8 0
7 12 0
12 0
3 0
7 0
3 12 9 0
11 0
11 2 0
12 0
3 9 0
7 3 12 0
12 0
11 0
12 3 0
7 3 9 0
7 3 12 9 0
7 3 0
2 8 11 0
12 7 0
7 0
2 0
7 12 0
11 2 0
3 12 9 0
11 0
3 9 0
12 0
12 7 0
7 3 9 0
2 0
3 0
7 0
11 0
7 3 0
7 3 12 9 0
2 8 0
3 0
2 0
7 0
12 0
11 0
12 3 0
12 0
2 8 11 0
7 0
7 3 12 0
7 0
12 0
12 3 0
11 0
12 0
2 0
7 0
11 0
12 0
7 0
7 3 12 0
11 0
7 3 9 0
2 8 11 0
2 0
3 0
7 12 0
3 9 0
12 7 0
11 2 0
3 0
3 12 9 0
7 3 0
2 8 0
7 3 12 9 0
11 2 0
11 0
12 7 0
2 0
3 9 0
7 0
7 0
2 8 11 0
7 0
11 0
3 0
7 3 0
7 3 9 0
12 0
12 0
3 0
11 0
2 8 0
7 12 0
7 3 12 0
3 12 9 0
12 0
7 3 12 9 0
2 0
12 3 0
2 8 13 0
13 0
13 2 0
2 8 13 0
13 0
13 2 0
13 0
13 0
13 0
13 0
1 0
13 4 -1 0
-1 4 13 0
13 -1 0
13 -1 0
4 -1 0
4 -1 0
13 0
4 0
13 0
4 0
13 4 0
4 13 0
1 4 0
-1 4 0
4 0
10 1 0
10 -1 0
10 0
1 0
1 0
7 1 0
7 -1 0
7 0
1 13 0
-1 13 0
13 0
1 0
13 -1 0
-1 4 13 0
13 -1 0
13 4 -1 0
4 -1 0
4 -1 0
4 0
4 0
13 0
13 4 0
13 0
4 13 0
10 0
10 0
10 0
10 0
10 0
10 0
10 0
10 0
10 0
10 0
10 0
10 0
10 0
10 0
10 0
10 0
10 0
10 0
10 0
10 0
10 0
10 0
10 0
10 0
10 0
10 0
10 0
10 0
10 0
10 0
10 0
10 0
10 0
10 0
10 0
-8 -13 2 0
2 8 1 0
13 2 1 0
13 1 0
2 1 8 13 0
2 8 -1 0
13 2 -1 0
13 -1 0
-1 2 8 13 0
13 0
2 0
10 0
10 0
10 0
10 0
10 0
10 0
16 0
16 0
16 0
1 0
4 0
4 0
4 0
4 0
4 0
4 0
4 0
4 0
4 0
3 0
2 0
2 0
3 9 2 0
2 8 0
3 0
3 9 0
2 8 3 0
2 8 3 0
2 0
3 9 2 0
3 9 0
2 8 0
3 0
3 0
2 8 0
2 8 3 0
3 9 2 0
3 9 0
2 0
2 0
2 8 3 0
3 0
3 9 0
3 9 2 0
2 8 0
3 9 0
2 0
2 8 0
3 0
2 0
3 0
5 0
6 0
6 15 0
5 14 6 0
6 15 5 0
5 14 0
7 1 0
7 -1 0
7 0
3 0
2 0
3 9 0
2 0
2 8 0
3 0
2 8 0
3 0
3 9 0
2 0
2 8 0
3 9 0
3 0
2 0
3 9 0
3 0
2 0
2 8 0
3 0
2 0
4 1 0
4 -1 0
4 0
4 1 0
4 -1 0
4 0
-8 2 0
2 8 1 0
2 8 -1 0
2 0
3 9 0
3 9 0
6 15 5 0
5 0
6 15 0
6 0
5 14 6 0
5 14 0
5 0
6 0
4 0
4 0
10 0
10 0
10 0
10 0
10 0
10 0
10 0
10 0
10 0
10 0
10 0
10 0
7 0
12 0
3 0
3 0
7 3 12 0
12 0
7 0
7 0
3 0
12 7 0
12 3 0
3 12 9 0
7 3 9 0
3 9 0
7 12 0
12 0
7 0
7 3 0
7 3 12 9 0
12 0
7 0
7 3 12 9 0
12 0
3 9 0
7 3 9 0
7 3 0
12 0
12 3 0
7 3 12 0
7 0
12 7 0
7 12 0
3 0
3 12 9 0
3 0
7 0
12 0
3 0
7 12 0
7 0
12 0
3 0
12 7 0
7 3 0
12 0
12 3 0
7 3 12 9 0
7 3 9 0
7 3 12 0
7 0
3 9 0
7 0
12 0
3 12 9 0
7 3 12 9 0
7 0
7 12 0
3 0
3 9 0
12 0
12 7 0
3 12 9 0
12 0
7 0
7 3 9 0
7 3 12 0
12 0
7 0
12 3 0
3 0
7 3 0
12 0
3 0
7 0
6 0
6 15 0
6 15 5 0
5 14 0
5 14 6 0
5 0
4 0
4 0
4 0
4 0
4 0
4 0
4 0
4 0
4 0
16 0
16 0
16 0
16 0
16 0
16 0
16 0
16 0
16 0
16 0
16 0
16 0
16 0
16 0
16 0
16 0
16 0
16 0
16 0
16 0
16 0
12 0
7 0
3 0
12 7 0
7 0
12 0
12 3 0
3 9 0
7 12 0
7 0
3 0
3 0
7 3 9 0
7 3 12 9 0
12 0
7 3 12 0
12 0
3 12 9 0
7 0
7 3 0
3 0
7 3 9 0
7 0
12 0
12 0
7 0
7 3 12 0
7 12 0
7 3 12 9 0
12 3 0
3 0
3 12 9 0
7 3 0
12 0
3 9 0
7 0
12 7 0
7 0
12 7 0
12 0
3 9 0
3 0
3 0
3 12 9 0
12 3 0
7 3 12 9 0
12 0
7 3 0
7 0
7 3 9 0
7 0
7 3 12 0
12 0
7 12 0
7 3 12 0
12 0
3 12 9 0
7 0
12 0
7 12 0
3 9 0
3 0
3 0
7 0
7 3 9 0
12 0
7 3 0
12 3 0
7 3 12 9 0
12 7 0
7 0
7 0
12 0
3 0
1 10 0
-1 10 0
10 0
2 0
3 0
3 0
2 8 3 0
3 9 0
2 8 0
2 0
3 9 2 0
3 9 2 0
2 8 0
2 8 3 0
3 9 0
2 0
3 0
3 9 2 0
3 0
2 8 3 0
2 0
2 8 0
3 9 0
3 9 0
3 9 2 0
2 8 3 0
2 8 0
2 0
3 0
3 9 0
3 0
2 0
2 8 0
2 0
3 0
6 0
6 15 0
5 14 0
5 0
6 0
5 0
5 14 6 0
5 14 0
6 15 0
5 0
6 15 5 0
6 0
5 0
6 0
10 0
10 0
10 0
2 -7 -8 0
2 7 1 8 0
2 8 1 0
2 7 1 0
7 1 0
2 8 -1 0
7 -1 0
-1 2 7 8 0
-1 2 7 0
7 0
2 0
2 -16 -8 0
2 8 16 0
16 2 0
2 0
2 8 0
16 0
16 0
2 8 0
16 0
16 0
2 0
16 2 0
2 8 16 0
2 8 0
2 0
16 2 0
2 8 16 0
16 0
16 0
16 0
16 0
2 0
16 2 0
2 8 0
2 8 16 0
2 0
16 0
10 0
10 0
7 0
7 0
7 0
7 0
6 15 0
5 14 0
6 15 5 0
6 0
5 0
5 14 6 0
-8 2 0
2 8 1 0
2 8 -1 0
2 0
13 1 0
13 -1 0
13 0
2 -8 0
2 8 1 0
2 8 -1 0
2 0
16 1 0
16 -1 0
16 0
10 1 0
10 -1 0
10 0
13 0
13 0
13 0
13 0
1 4 0
-1 4 0
4 0
5 0
5 14 0
6 15 5 0
5 14 6 0
6 0
6 15 0
6 0
5 0
3 0
2 0
3 0
2 0
2 8 0
2 0
3 0
3 9 0
2 8 0
3 0
3 0
2 0
3 9 0
2 0
2 0
2 0
2 8 0
3 9 0
3 0
3 0
2 8 0
2 0
3 0
3 9 0
2 0
3 0
7 0
3 0
11 0
2 0
12 0
7 0
7 0
12 0
3 12 9 0
2 0
2 8 0
3 0
7 3 12 9 0
3 0
11 0
12 0
2 0
7 3 9 0
7 3 12 0
7 12 0
7 3 0
12 7 0
12 0
11 2 0
11 0
2 8 11 0
7 0
11 0
3 9 0
12 3 0
7 12 0
2 0
7 3 12 0
11 0
12 3 0
2 8 0
2 0
12 0
11 0
11 0
7 0
7 3 12 9 0
7 3 9 0
11 2 0
3 9 0
2 8 11 0
3 0
3 12 9 0
7 3 0
12 0
7 0
12 7 0
12 0
3 0
7 0
7 12 0
12 7 0
7 0
12 3 0
3 12 9 0
2 0
2 8 0
2 0
3 0
7 3 9 0
11 0
7 3 0
12 0
7 3 12 0
3 9 0
12 0
12 0
11 0
3 0
2 8 11 0
11 2 0
7 3 12 9 0
11 0
7 0
7 0
11 2 0
12 3 0
7 3 12 0
11 0
7 3 12 9 0
3 12 9 0
7 0
7 3 9 0
3 0
3 0
11 0
2 0
2 8 0
11 0
3 9 0
2 0
2 8 11 0
12 0
12 0
7 0
12 7 0
7 3 0
12 0
7 12 0
7 0
7 1 0
7 -1 0
7 0
7 0
7 0
7 0
7 0
7 0
7 0
7 0
7 0
7 0
7 0
10 1 0
10 -1 0
10 0
-8 2 0
-8 2 0
7 0
3 0
12 0
12 3 0
7 3 9 0
7 3 12 0
7 3 0
12 7 0
3 9 0
7 0
12 0
12 0
7 0
7 0
3 0
7 3 12 9 0
12 0
3 0
3 12 9 0
7 12 0
7 0
7 3 9 0
12 3 0
3 9 0
7 0
3 0
7 0
7 3 12 9 0
12 0
3 12 9 0
3 0
7 12 0
12 0
12 7 0
7 3 12 0
12 0
7 3 0
12 3 0
7 0
7 3 0
3 9 0
3 12 9 0
3 0
3 0
12 7 0
7 3 12 0
12 0
7 3 12 9 0
12 0
12 0
7 0
7 12 0
7 0
7 3 9 0
7 0
12 0
12 0
3 0
3 12 9 0
3 0
3 9 0
7 3 12 0
7 3 0
12 0
7 3 12 9 0
12 3 0
7 0
12 7 0
7 0
7 3 9 0
7 12 0
12 0
7 0
3 0
7 1 0
7 -1 0
7 0
6 0
5 14 0
6 15 0
5 14 6 0
5 0
6 15 5 0
5 0
6 0
4 0
4 0
4 0
4 0
4 0
4 0
4 0
4 0
4 0
10 0
10 0
2 -8 0
2 8 1 0
2 8 -1 0
2 0
7 0
3 0
12 0
12 3 0
3 12 9 0
12 0
7 0
7 3 12 0
12 0
7 3 9 0
12 0
3 0
7 3 0
7 12 0
3 0
3 9 0
7 0
7 3 12 9 0
7 0
12 7 0
12 7 0
12 0
7 3 9 0
12 0
7 0
3 9 0
7 3 0
7 3 12 9 0
3 0
7 12 0
7 0
3 0
7 0
12 0
7 3 12 0
12 3 0
3 12 9 0
7 3 12 0
12 7 0
7 3 0
7 12 0
12 0
7 0
3 0
12 3 0
7 3 12 9 0
3 0
12 0
7 3 9 0
3 12 9 0
12 0
7 0
3 9 0
7 0
12 0
7 0
3 12 9 0
7 3 0
3 0
7 3 12 0
3 9 0
7 0
12 3 0
7 3 9 0
12 0
12 7 0
3 0
12 0
7 0
7 3 12 9 0
7 12 0
3 0
7 0
12 0
4 0
4 0
4 0
4 0
4 0
4 0
4 0
4 0
10 0
10 0
1 0
1 0
10 0
10 0
10 0
10 0
10 0
10 0
2 -13 -8 0
2 8 1 0
13 2 1 0
13 1 0
2 1 8 13 0
2 8 -1 0
-1 2 8 13 0
13 2 -1 0
13 -1 0
13 0
2 0
10 0
10 0
10 0
1 0
-1 4 0
4 0
2 0
3 0
3 9 2 0
2 0
3 0
3 9 0
2 8 3 0
2 8 0
2 8 0
3 0
3 9 0
2 0
3 9 2 0
2 8 3 0
3 0
3 9 0
2 8 3 0
3 9 2 0
2 8 0
2 0
3 0
3 9 2 0
2 8 3 0
2 0
3 9 0
2 8 0
2 0
3 0
7 1 0
7 -1 0
7 0
3 0
2 0
2 0
3 9 2 0
3 9 0
2 8 0
3 0
2 8 3 0
2 8 0
2 0
3 9 0
2 8 3 0
3 0
3 9 2 0
3 0
3 9 2 0
3 9 0
2 0
2 8 3 0
2 8 0
3 9 0
3 0
3 9 2 0
2 8 3 0
2 0
2 8 0
2 0
3 0
2 8 0
3 9 0
2 0
3 0
4 1 0
4 -1 0
4 0
7 1 0
7 -1 0
7 0
10 0
10 0
10 0
10 0
10 0
10 0
10 0
10 0
10 0
13 0
13 0
7 0
7 0
7 0
7 0
7 0
7 0
7 0
7 0
7 0
4 0
4 0
4 0
4 0
4 0
4 0
4 0
4 0
4 0
2 8 0
2 0
2 8 0
2 0
6 0
5 0
6 15 0
5 14 6 0
5 14 0
6 15 5 0
5 0
6 0
6 15 5 0
5 14 6 0
5 0
5 14 0
6 15 0
6 0
5 0
5 14 0
6 15 0
6 15 5 0
5 14 6 0
6 0
5 0
6 15 0
6 0
5 14 0
6 15 5 0
5 14 6 0
5 0
6 0
16 0
16 0
16 0
16 0
16 0
16 0
16 0
16 0
16 0
-5 -15 6 0
-6 -14 5 0
-14 5 -15 0
-14 -15 6 0
15 1 5 6 0
1 14 5 6 0
5 14 1 0
6 15 1 0
-1 15 5 6 0
-1 14 5 6 0
5 14 -1 0
6 15 -1 0
5 0
6 0
13 0
13 0
13 0
13 0
13 0
13 0
-8 2 0
2 8 1 0
2 8 -1 0
2 0
1 4 0
-1 4 0
4 0
1 4 0
1 10 0
-1 4 0
-1 10 0
4 0
10 0
13 0
13 0
6 15 5 0
6 15 0
5 14 0
6 0
5 14 6 0
5 0
6 0
5 0
1 4 0
1 13 0
-1 4 0
-1 13 0
4 0
13 0
4 0
4 0
4 0
4 0
4 0
4 0
4 0
4 0
4 0
4 0
4 0
4 0
4 0
-8 2 0
2 8 1 0
2 8 -1 0
2 0
10 1 0
10 -1 0
10 0
6 0
5 0
5 14 0
5 14 6 0
6 15 5 0
6 15 0
6 0
5 0
5 0
5 14 0
6 15 0
5 14 6 0
6 0
6 15 5 0
6 0
5 0
1 13 0
-1 13 0
13 0
10 0
10 0
4 0
4 0
-5 -15 6 0
-6 -14 5 0
-14 -15 6 0
-14 5 -15 0
15 1 5 6 0
5 14 1 0
1 14 5 6 0
6 15 1 0
6 15 -1 0
5 14 -1 0
-1 14 5 6 0
-1 15 5 6 0
5 0
6 0
4 16 1 0
4 1 0
16 1 0
4 1 16 0
4 -1 0
-1 4 16 0
16 -1 0
4 16 -1 0
4 0
16 0
4 0
4 0
4 0
4 0
4 0
4 0
4 0
4 0
4 0
1 0
1 0
1 10 0
-1 10 0
10 0
1 0
2 0
2 0
3 0
2 8 0
3 9 0
2 0
2 0
2 8 0
3 9 0
3 0
2 0
2 0
3 0
3 9 0
2 8 0
3 0
2 0
2 0
2 0
3 9 0
7 0
7 0
7 0
7 0
7 0
7 0
7 0
7 0
12 0
11 0
4 0
7 0
2 0
3 0
11 0
2 7 8 0
2 0
12 3 11 0
4 0
3 12 9 11 0
11 3 0
2 8 0
3 9 12 0
11 12 0
12 0
7 0
7 0
11 0
3 9 0
7 0
3 0
2 7 0
4 0
4 0
2 0
12 3 0
12 0
3 9 11 0
3 0
11 3 0
7 0
3 12 9 11 0
7 0
2 7 8 0
11 12 0
2 0
4 0
2 0
12 0
2 7 0
12 3 11 0
7 0
12 0
12 3 0
4 0
3 9 11 0
2 8 0
11 0
3 9 0
3 9 12 0
11 0
4 0
2 7 8 0
2 0
11 3 0
7 0
2 8 0
12 0
11 0
3 0
2 7 0
3 9 11 0
7 0
12 0
11 0
3 9 12 0
2 0
4 0
3 12 9 11 0
3 9 0
4 0
12 3 0
11 12 0
12 3 11 0
7 0
4 0
3 0
3 9 0
4 0
3 12 9 11 0
7 0
7 0
2 8 0
2 7 8 0
12 3 11 0
2 0
11 0
3 9 11 0
12 3 0
7 0
4 0
4 0
2 7 0
3 9 12 0
11 0
12 0
2 0
12 0
11 12 0
11 3 0
13 0
13 0
13 0
13 0
13 0
13 0
13 0
13 0
13 0
13 0
4 0
4 0
4 1 0
4 -1 0
4 0
3 0
12 0
7 0
7 0
7 3 12 0
12 0
3 9 0
7 3 0
7 0
12 0
7 3 12 9 0
3 0
12 3 0
3 12 9 0
7 3 9 0
12 7 0
7 12 0
12 0
7 0
3 0
7 3 9 0
3 12 9 0
7 3 12 0
7 3 12 9 0
12 3 0
7 0
7 0
3 0
3 0
12 0
12 0
7 3 0
12 7 0
7 0
3 9 0
12 0
7 12 0
3 0
7 3 12 0
12 0
12 0
7 0
7 0
7 0
12 0
7 3 12 9 0
12 3 0
12 7 0
3 0
3 9 0
7 12 0
3 12 9 0
7 3 0
7 3 9 0
12 3 0
12 7 0
7 3 9 0
3 0
12 0
7 0
3 9 0
3 12 9 0
7 0
12 0
7 3 0
7 3 12 9 0
7 3 12 0
7 12 0
7 0
12 0
3 0
12 0
3 0
7 0
1 0
3 0
2 0
2 8 3 0
3 9 2 0
3 0
3 9 0
2 0
2 8 0
3 9 2 0
3 0
3 9 0
2 0
2 8 0
2 8 3 0
3 9 2 0
3 0
2 0
3 9 0
2 8 0
2 8 3 0
2 8 0
3 0
3 9 2 0
2 8 3 0
2 0
3 9 0
2 8 0
2 0
3 0
3 9 0
3 0
2 0
4 0
4 0
4 0
4 0
4 0
4 0
4 0
4 0
4 0
1 0
1 0
2 -16 -8 0
16 1 0
2 8 1 0
2 1 16 8 0
2 1 16 0
-1 2 16 0
2 8 -1 0
16 -1 0
-1 2 16 8 0
16 0
2 0
3 0
2 0
3 0
2 0
2 8 3 0
2 8 0
3 9 0
3 9 2 0
3 9 2 0
2 8 3 0
2 8 0
2 0
3 0
3 9 0
3 9 2 0
2 0
3 9 0
2 8 3 0
3 0
2 8 0
2 0
3 0
7 10 0
7 0
10 0
7 0
10 7 0
10 0
7 10 0
7 0
10 0
7 0
10 7 0
10 0
1 0
1 0
16 0
16 0
16 0
16 0
16 0
13 0
16 0
2 8 13 0
16 0
16 0
16 0
16 0
16 0
16 0
16 0
16 0
16 0
16 0
16 0
16 0
16 0
16 0
13 2 0
16 0
16 0
16 0
2 8 0
16 0
16 0
16 0
16 0
16 0
16 0
2 -8 0
2 8 1 0
2 8 -1 0
2 0
2 -8 0
2 8 1 0
2 8 -1 0
2 0
1 10 0
-1 10 0
10 0
4 0
4 0
4 0
4 0
4 0
4 0
4 0
4 0
4 0
4 0
4 0
4 0
4 0
4 0
4 0
4 0
4 0
4 0
10 0
10 0
10 0
10 0
10 0
10 0
10 0
10 0
10 0
10 0
16 1 0
16 -1 0
16 0
5 14 0
6 0
6 15 0
6 15 5 0
5 0
5 14 6 0
5 14 0
6 0
6 15 0
6 15 5 0
5 0
5 14 6 0
-8 -13 2 0
2 8 1 0
13 2 1 0
13 1 0
2 1 8 13 0
2 8 -1 0
13 2 -1 0
13 -1 0
-1 2 8 13 0
13 0
2 0
4 1 0
4 -1 0
4 0
4 1 0
4 -1 0
4 0
16 0
4 0
4 0
4 0
4 0
10 0
10 0
10 0
10 0
10 0
10 0
1 0
10 0
10 0
10 0
10 0
10 0
10 0
1 0
10 0
10 0
10 0
10 0
10 0
10 0
10 0
10 0
1 0
10 0
10 0
10 0
10 0
10 0
10 0
10 0
10 0
10 0
10 0
10 0
7 0
7 10 0
7 0
10 7 0
10 0
7 0
10 0
10 7 0
7 10 0
7 0
10 0
7 10 0
10 0
10 0
7 0
7 0
10 7 0
7 10 0
7 0
10 7 0
10 0
7 0
10 0
10 0
7 0
3 0
2 0
3 0
2 0
2 8 0
3 9 0
2 0
3 0
2 8 0
3 9 0
3 9 0
2 0
2 8 0
3 0
2 0
3 0
2 8 0
3 9 0
3 0
2 0
10 1 0
10 -1 0
10 0
7 0
12 0
2 0
3 0
12 0
7 3 12 0
7 3 12 9 0
3 12 9 0
7 0
2 8 0
3 0
3 0
7 3 0
7 0
3 9 0
12 3 0
2 0
12 0
7 3 9 0
12 7 0
7 0
12 0
7 12 0
7 3 12 9 0
7 0
7 3 12 0
3 0
7 12 0
12 0
7 3 9 0
3 12 9 0
12 7 0
12 0
2 0
12 3 0
3 0
12 0
7 0
7 0
7 3 0
3 9 0
2 8 0
7 0
12 7 0
7 3 12 0
12 0
3 0
7 3 12 9 0
3 9 0
12 0
7 3 9 0
7 0
12 3 0
12 0
2 8 0
2 0
3 0
7 12 0
3 12 9 0
7 3 0
7 0
12 3 0
3 0
12 0
7 3 0
2 0
3 9 0
12 0
12 7 0
3 0
12 0
7 12 0
7 3 12 0
2 8 0
3 12 9 0
7 0
7 0
7 3 12 9 0
7 0
7 3 9 0
7 0
12 0
2 0
3 0
4 0
4 0
4 0
4 0
4 0
4 0
4 0
4 0
4 0
4 0
10 0
4 0
4 0
2 -8 0
2 8 1 0
2 8 -1 0
2 0
3 0
2 0
2 8 3 0
2 0
3 0
3 9 2 0
2 8 0
3 9 0
2 0
3 9 2 0
3 0
3 9 0
2 8 0
2 8 3 0
2 8 3 0
3 9 0
3 9 2 0
3 0
2 0
2 8 0
2 8 3 0
2 0
3 9 2 0
3 9 0
2 8 0
3 0
3 9 0
3 0
2 8 0
2 0
3 0
2 0
7 1 0
7 -1 0
7 0
10 0
10 0
10 0
10 0
10 0
10 0
10 0
10 0
10 0
10 0
10 -1 0
10 0
1 10 0
-1 10 0
10 0
3 0
2 0
2 8 0
3 0
3 9 0
2 8 3 0
2 0
3 9 2 0
2 8 3 0
2 0
3 0
2 8 0
3 9 0
3 9 2 0
3 9 0
3 0
2 8 3 0
2 0
3 9 2 0
2 8 0
2 8 0
3 9 2 0
2 8 3 0
3 0
3 9 0
2 0
2 0
3 9 0
3 0
2 8 0
2 0
3 0
1 13 0
-1 13 0
13 0
3 0
3 9 1 0
3 9 -1 0
3 0
1 0
2 0
4 0
3 0
4 0
2 0
4 0
2 0
3 0
3 9 0
2 8 0
4 0
4 0
3 0
2 0
3 9 0
4 0
2 8 0
4 0
2 0
4 0
2 8 0
4 0
2 0
4 0
2 0
3 9 0
3 0
3 0
4 0
3 9 0
4 0
2 0
4 0
2 0
2 8 0
10 0
10 0
1 0
1 4 0
-1 4 0
4 0
1 13 0
-1 13 0
13 0
4 0
4 7 0
4 7 0
7 0
4 0
4 0
7 0
4 0
4 7 0
4 0
4 7 0
7 0
7 0
4 0
4 0
4 0
4 0
4 0
7 0
4 0
4 0
4 7 0
4 7 0
7 0
4 0
7 0
4 0
4 0
4 7 0
4 0
6 0
5 0
6 15 0
6 15 5 0
5 14 6 0
5 14 0
10 0
10 0
4 1 0
4 -1 0
1 0
-1 10 0
10 7 -1 0
7 -1 0
-1 7 10 0
7 10 0
10 7 0
1 0
10 0
7 0
1 4 0
-1 4 0
4 0
4 0
4 0
4 0
4 0
4 0
4 0
4 0
4 0
4 0
5 14 6 0
5 0
6 15 0
5 14 0
6 15 5 0
6 0
5 0
6 0
7 1 0
7 -1 0
7 0
13 0
13 0
1 0
1 0
1 0
7 -1 0
-1 7 0
7 0
7 0
10 0
10 0
10 0
10 0
10 0
10 0
10 0
10 0
10 0
7 1 0
7 -1 0
7 0
2 -8 0
2 8 1 0
2 8 -1 0
2 0
10 1 0
10 -1 0
10 0
16 0
16 0
16 0
2 0
3 0
3 9 0
2 0
2 8 3 0
2 8 0
3 0
3 9 2 0
3 0
3 9 0
3 9 2 0
2 8 0
2 8 3 0
2 0
3 9 2 0
3 0
2 0
2 8 0
2 8 3 0
3 9 0
2 8 0
2 0
3 9 2 0
3 9 0
2 8 3 0
3 0
3 9 0
3 0
2 8 0
2 0
3 0
2 0
16 0
16 0
16 0
16 0
16 0
16 0
16 0
16 0
16 0
16 0
10 0
10 0
1 4 0
-1 4 0
4 0
2 0
3 0
3 9 0
2 0
2 8 0
2 8 3 0
3 0
3 9 2 0
3 9 2 0
2 8 0
2 8 3 0
3 0
3 9 0
2 0
3 9 0
2 8 0
2 0
2 8 3 0
3 9 2 0
3 0
3 9 0
2 8 0
3 9 2 0
2 8 3 0
2 0
3 0
2 8 0
3 9 0
2 0
3 0
2 0
3 0
3 0
2 0
2 8 0
3 9 0
3 9 2 0
2 0
2 8 3 0
3 0
3 0
3 9 0
2 8 0
3 9 2 0
2 0
2 8 3 0
3 9 0
2 8 3 0
2 0
3 9 2 0
2 8 0
3 0
3 9 2 0
2 8 3 0
2 0
2 8 0
3 0
3 9 0
3 9 0
2 8 0
3 0
2 0
3 0
2 0
1 4 0
-1 4 0
4 0
1 4 0
-1 4 0
4 0
3 -9 0
3 9 0
3 0
3 9 1 0
3 9 0
3 0
3 9 -1 0
3 0
13 0
13 0
13 0
13 0
13 0
13 0
13 0
13 0
13 0
4 0
4 0
4 0
4 0
4 0
4 0
16 0
7 0
7 0
16 0
16 0
16 0
7 0
7 0
16 0
7 0
16 0
16 0
7 0
16 0
16 0
7 0
16 0
16 0
7 0
16 0
7 0
16 0
16 0
7 0
3 0
2 0
2 8 0
2 8 3 0
3 0
3 9 2 0
3 9 0
2 0
3 0
3 9 2 0
2 8 3 0
2 8 0
2 0
3 9 0
2 8 0
3 0
2 8 3 0
2 0
3 9 0
3 9 2 0
3 9 0
3 0
2 0
2 8 0
2 0
3 0
12 0
7 0
3 0
7 3 12 9 0
3 0
12 7 0
7 0
7 3 9 0
7 3 0
3 12 9 0
3 0
7 3 12 0
12 0
12 0
7 12 0
7 0
12 3 0
12 0
7 0
3 9 0
12 7 0
12 0
7 3 0
3 0
3 12 9 0
7 0
7 0
7 3 12 9 0
3 9 0
7 3 12 0
7 0
12 0
12 0
12 3 0
7 3 9 0
7 12 0
3 0
7 0
12 0
12 7 0
3 0
3 9 0
3 0
12 3 0
7 3 12 0
7 12 0
7 0
7 3 9 0
7 0
7 3 12 9 0
7 3 0
12 0
12 0
3 12 9 0
12 3 0
12 0
3 0
7 3 0
7 0
3 9 0
12 0
7 0
7 0
7 3 9 0
3 12 9 0
7 12 0
7 3 12 0
12 7 0
7 3 12 9 0
3 0
12 0
12 0
7 0
3 0
7 3 12 0
3 9 0
12 0
7 12 0
3 0
2 0
7 3 9 0
3 0
12 0
12 0
2 8 0
7 12 0
3 12 9 0
7 0
7 3 12 9 0
3 9 0
7 3 0
3 0
3 9 0
7 0
3 9 0
7 0
3 9 0
3 12 0
2 8 0
3 12 0
3 0
7 12 0
12 0
3 9 0
12 0
12 0
7 12 0
7 3 12 9 0
3 12 9 0
7 0
7 3 12 0
3 0
3 9 0
3 0
2 0
7 3 9 0
3 9 0
7 0
3 9 0
7 3 0
7 0
3 9 0
3 0
3 0
7 0
12 0
3 0
3 0
2 0
3 0
3 9 0
7 12 0
7 0
3 12 0
3 9 0
3 0
3 12 9 0
3 9 0
7 3 0
7 3 12 9 0
3 0
12 0
7 12 0
7 3 12 0
2 0
12 0
7 0
2 8 0
3 9 0
12 0
3 9 0
3 0
7 0
7 3 9 0
3 0
3 0
12 0
3 0
2 0
3 0
7 0
3 0
3 0
12 0
7 0
7 3 9 0
3 9 0
7 3 0
7 12 0
3 0
7 3 12 9 0
7 0
12 0
3 0
12 7 0
12 0
7 0
12 3 0
7 0
3 12 9 0
7 3 12 0
12 0
7 0
3 0
3 0
12 0
7 12 0
3 12 9 0
3 9 0
12 3 0
12 0
7 0
7 3 12 9 0
7 3 12 0
7 3 0
7 3 9 0
7 0
12 0
12 7 0
12 0
3 12 9 0
3 0
7 12 0
3 9 0
7 3 0
12 3 0
7 0
12 0
7 0
7 3 9 0
12 0
7 0
7 3 12 0
3 0
12 7 0
7 3 12 9 0
7 3 0
12 0
3 9 0
3 12 9 0
7 3 12 0
7 0
3 0
3 0
12 0
7 0
7 3 12 9 0
7 3 9 0
7 12 0
12 7 0
12 0
12 3 0
7 0
3 0
12 0
7 0
4 1 0
4 -1 0
4 0
10 0
10 0
10 0
10 0
10 0
10 0
10 0
10 0
10 0
10 0
10 0
10 0
10 0
10 0
10 0
10 0
10 0
10 0
10 0
10 0
10 0
10 0
10 0
10 0
10 0
2 0
3 0
2 3 1 9 0
3 9 1 0
2 3 1 8 0
2 8 1 0
2 -1 0
3 -1 0
2 0
3 0
3 0
2 0
2 8 3 0
3 9 0
2 0
3 0
3 9 2 0
2 8 0
3 9 2 0
3 9 0
2 0
2 8 0
3 0
2 8 3 0
2 8 3 0
2 0
3 9 0
3 9 2 0
2 8 0
3 0
3 9 2 0
2 0
3 9 0
2 8 3 0
3 0
2 8 0
3 0
3 9 0
2 8 0
2 0
2 0
3 0
10 0
10 0
4 0
4 0
4 0
4 0
4 0
4 0
4 0
4 0
4 0
10 0
10 0
3 0
12 0
7 0
3 0
7 3 12 0
12 7 0
3 9 0
7 12 0
7 0
7 3 9 0
3 0
7 0
7 3 0
7 0
12 0
12 3 0
12 0
3 12 9 0
7 3 12 9 0
12 0
12 3 0
7 0
3 12 9 0
3 0
3 0
12 0
7 0
12 7 0
7 3 9 0
7 3 12 9 0
12 0
7 3 12 0
7 0
3 9 0
12 0
7 3 0
7 12 0
12 3 0
7 3 12 9 0
12 0
7 12 0
3 0
12 0
7 0
7 0
7 3 12 0
12 7 0
12 0
3 12 9 0
3 0
7 0
3 9 0
7 3 9 0
7 3 0
7 3 0
12 0
3 9 0
7 0
12 3 0
3 0
7 3 12 0
3 12 9 0
12 7 0
7 3 9 0
7 0
12 0
7 12 0
7 3 12 9 0
12 0
7 0
3 0
12 0
7 0
3 0
7 0
7 0
4 1 0
4 -1 0
4 0
1 13 0
-1 13 0
13 0
6 0
5 0
6 0
6 15 5 0
6 15 0
5 0
5 14 0
5 14 6 0
5 14 6 0
6 15 0
5 0
5 14 0
6 15 5 0
6 0
6 15 5 0
6 0
5 14 0
6 15 0
5 14 6 0
5 0
6 15 5 0
5 14 0
5 0
6 0
5 14 6 0
6 15 0
5 0
6 0
7 1 0
7 -1 0
7 0
10 0
10 0
10 0
10 0
10 0
10 0
10 0
10 0
10 0
10 0
10 0
10 0
10 0
10 0
10 0
10 0
10 0
10 0
5 14 0
6 15 5 0
6 15 0
5 14 6 0
2 -8 0
2 8 1 0
2 8 -1 0
2 0
16 0
16 0
2 -16 -8 0
2 1 16 8 0
2 1 16 0
2 8 1 0
16 1 0
2 8 -1 0
16 -1 0
-1 2 16 8 0
-1 2 16 0
16 0
2 0
10 0
10 0
10 0
10 0
10 0
10 0
10 0
10 0
10 0
1 0
3 -9 0
3 9 0
3 0
3 9 0
3 0
3 9 0
3 0
3 0
3 9 0
3 0
6 15 5 0
5 0
5 14 0
6 15 0
6 0
5 14 6 0
5 0
6 0
1 4 0
-1 4 0
4 0
-8 -13 2 0
2 8 1 0
13 2 1 0
13 1 0
2 1 8 13 0
2 8 -1 0
13 2 -1 0
13 -1 0
-1 2 8 13 0
13 0
2 0
5 0
3 0
7 0
12 0
7 3 0
12 7 0
7 3 12 0
7 3 9 0
7 0
7 0
12 0
7 3 12 9 0
7 0
5 0
7 12 0
3 0
12 0
12 3 0
3 9 0
12 0
3 12 9 0
3 0
5 14 0
7 0
7 3 12 9 0
7 3 9 0
5 0
7 0
12 0
3 0
12 0
12 0
7 12 0
7 3 12 0
7 3 0
3 9 0
3 0
3 12 9 0
12 7 0
5 14 0
12 3 0
7 0
12 0
3 0
5 0
7 12 0
7 3 12 0
12 3 0
12 0
7 3 0
12 7 0
3 12 9 0
12 0
7 0
3 0
7 0
7 3 12 9 0
7 3 9 0
5 14 0
3 9 0
7 0
7 3 12 0
3 0
7 0
5 0
7 3 12 9 0
3 12 9 0
12 7 0
12 0
5 14 0
3 9 0
7 3 0
12 0
7 3 9 0
7 0
12 0
7 0
12 3 0
7 12 0
3 0
12 0
5 0
3 0
7 0
2 -8 0
2 8 1 0
2 8 -1 0
2 0
10 0
10 0
1 0
16 -1 0
16 0
4 1 0
4 -1 0
4 0
3 -9 0
3 9 0
3 0
3 9 1 0
3 9 0
3 0
3 9 -1 0
3 0
16 0
16 0
16 0
4 0
4 0
4 0
4 0
4 0
4 0
4 0
4 0
4 0
7 0
7 0
7 0
7 0
4 0
4 0
16 1 0
16 -1 0
16 0
5 0
6 15 0
5 14 6 0
6 15 5 0
6 0
5 14 0
6 0
5 0
1 4 0
-1 4 0
4 0
1 0
13 0
13 0
-8 2 0
2 8 1 0
2 8 -1 0
2 0
10 0
10 0
10 0
10 0
10 0
10 0
10 0
10 0
10 0
10 0
10 0
10 0
10 0
10 0
10 0
10 0
10 0
10 0
10 0
10 0
10 0
10 0
1 0
1 0
1 0
-6 -14 5 0
-5 -15 6 0
-14 -15 6 0
-14 5 -15 0
15 1 5 6 0
5 14 1 0
1 14 5 6 0
6 15 1 0
-1 14 5 6 0
5 14 -1 0
6 15 -1 0
-1 15 5 6 0
5 0
6 0
6 15 5 0
5 14 0
6 15 0
5 14 6 0
6 0
5 0
6 15 5 0
6 15 0
6 0
5 14 0
5 0
5 14 6 0
6 15 5 0
6 15 0
6 0
5 14 0
5 0
5 14 6 0
13 0
13 0
13 0
13 0
13 0
13 0
13 0
13 0
13 0
13 0
13 0
13 0
13 0
13 0
13 0
6 15 5 0
6 15 0
5 14 6 0
5 14 0
5 14 0
5 14 6 0
6 15 5 0
6 15 0
5 0
6 0
1 4 0
-1 4 0
4 0
-8 -13 2 0
2 8 1 0
13 2 1 0
13 1 0
2 1 8 13 0
2 8 -1 0
13 2 -1 0
13 -1 0
-1 2 8 13 0
13 0
2 0
4 0
4 0
4 0
4 0
-1 4 0
4 -1 0
4 -1 0
4 -1 0
4 0
4 0
4 0
4 0
4 0
4 0
1 0
2 0
7 0
5 0
2 8 0
7 0
7 0
5 14 0
7 14 5 0
5 0
2 0
7 5 0
2 0
7 0
5 0
5 0
5 0
2 0
5 14 0
2 8 0
7 0
7 14 5 0
2 0
7 0
7 5 0
7 0
5 0
2 0
5 0
5 14 0
7 5 0
2 8 0
7 14 5 0
2 0
7 0
7 0
7 0
5 0
7 0
2 8 0
2 0
7 14 5 0
5 14 0
5 0
7 0
2 0
7 5 0
7 0
1 0
13 -1 0
13 -1 0
13 0
13 0
10 0
10 0
10 0
10 0
10 0
10 0
10 0
10 0
10 0
10 0
10 1 0
10 -1 0
10 0
13 1 0
13 -1 0
13 0
-14 -15 6 0
-6 -14 5 0
-14 5 -15 0
-5 -15 6 0
1 14 5 6 0
15 1 5 6 0
5 14 1 0
6 15 1 0
5 14 -1 0
-1 14 5 6 0
6 15 -1 0
-1 15 5 6 0
5 0
6 0
4 1 0
4 -1 0
4 0
4 1 13 0
4 1 0
4 -1 13 0
4 -1 0
13 4 0
4 0
10 0
10 0
6 0
5 0
6 15 0
5 14 0
6 15 5 0
5 0
6 0
5 14 6 0
5 14 0
5 14 6 0
6 15 0
6 0
6 15 5 0
5 0
6 15 0
6 0
5 0
5 14 0
6 15 5 0
5 14 6 0
5 14 0
6 15 5 0
5 14 6 0
6 15 0
5 0
6 0
5 0
6 0
5 0
6 15 0
5 14 0
5 14 6 0
6 0
6 15 5 0
5 0
6 0
1 13 0
-1 13 0
13 0
10 0
10 0
10 0
10 0
-8 2 0
2 8 0
2 8 13 0
2 8 13 0
2 8 0
2 8 0
13 0
13 0
2 0
13 2 0
13 2 0
13 2 0
2 8 13 0
2 0
2 8 0
2 8 0
13 2 0
2 8 13 0
2 8 0
13 0
13 0
2 0
2 8 0
13 0
13 2 0
13 0
2 8 0
2 8 13 0
2 8 0
13 2 0
2 8 13 0
2 0
13 2 0
2 0
13 2 0
2 0
2 0
13 2 0
2 0
2 8 0
2 0
2 0
2 8 0
2 0
2 8 0
2 8 0
2 0
2 0
2 8 0
2 8 0
2 0
2 0
10 0
10 4 0
10 0
4 0
4 0
4 0
10 4 0
10 0
10 0
4 0
10 0
4 0
4 0
10 0
10 4 0
10 0
4 0
10 4 0
4 0
10 0
4 0
10 0
4 1 0
4 -1 0
4 0
3 0
2 0
3 0
3 9 0
2 8 0
3 9 2 0
2 8 3 0
2 0
3 9 0
2 8 0
3 9 2 0
2 0
3 0
2 8 3 0
3 9 2 0
2 8 3 0
2 0
3 9 0
3 0
2 8 0
2 8 0
3 0
3 9 2 0
2 0
2 8 3 0
3 9 0
3 9 0
3 0
2 0
2 8 0
2 0
3 0
2 0
3 0
3 9 2 0
3 0
2 8 3 0
2 8 0
2 0
3 9 0
2 8 0
3 9 2 0
3 0
2 8 3 0
2 0
3 9 0
2 0
2 8 3 0
3 0
3 9 2 0
3 9 0
2 8 0
2 8 0
2 0
3 0
3 9 0
2 0
3 0
-8 0
2 0
13 0
-8 0
2 0
13 0
13 0
13 0
13 0
13 0
13 0
13 0
13 0
13 0
13 0
4 0
4 0
4 0
4 0
4 0
10 0
4 0
7 0
4 0
10 7 0
4 0
1 0
4 0
10 0
4 0
13 0
4 0
10 7 0
4 0
7 0
4 0
7 10 0
4 0
4 0
4 0
4 0
13 0
4 0
10 7 0
4 0
7 0
13 0
7 10 0
7 10 0
4 0
7 0
10 7 0
4 0
4 0
10 0
4 0
4 0
7 10 0
4 0
13 0
10 0
4 0
4 0
4 0
4 0
4 0
7 10 0
10 7 0
4 0
4 0
4 0
4 0
4 0
7 10 0
4 0
4 0
10 0
4 0
1 0
4 0
4 0
13 0
4 0
10 7 0
4 0
4 0
10 0
7 0
13 0
4 0
13 0
10 0
4 0
4 0
7 10 0
7 0
10 7 0
4 0
7 10 0
7 0
10 7 0
4 0
4 0
4 0
7 0
13 0
10 0
4 0
4 0
4 0
13 0
4 0
4 0
4 0
4 0
13 0
4 0
4 0
4 0
4 0
4 0
4 0
4 0
10 0
4 0
4 0
13 0
4 0
4 0
4 0
10 0
4 0
4 0
7 0
4 0
13 0
4 0
10 0
4 0
7 0
4 0
7 0
4 0
4 0
10 0
7 0
4 0
7 0
7 0
4 0
10 0
13 0
4 0
10 7 0
4 0
10 0
1 0
4 0
7 10 0
10 7 0
4 0
4 0
13 0
4 0
4 0
4 0
7 10 0
13 0
4 0
4 0
4 0
10 7 0
4 0
4 0
4 0
4 0
7 10 0
7 0
4 0
4 0
10 0
7 0
13 0
4 0
4 0
4 0
10 0
4 0
4 0
10 7 0
4 0
4 0
7 10 0
4 0
4 0
4 0
4 0
4 0
10 0
4 0
4 0
7 0
7 0
10 0
4 0
4 0
4 0
4 0
4 0
4 0
10 0
4 0
4 0
4 0
4 0
13 0
4 0
4 0
13 0
4 0
13 0
10 0
13 0
4 0
4 0
7 0
4 0
4 0
4 0
7 0
6 15 0
6 15 5 0
6 0
5 0
5 14 0
5 14 6 0
5 0
6 0
7 0
12 0
3 0
12 7 0
12 0
3 0
7 0
7 12 0
7 3 12 0
12 3 0
7 0
3 9 0
3 0
12 0
3 12 9 0
7 3 0
7 0
12 0
7 3 12 9 0
7 3 9 0
7 0
7 3 0
7 3 9 0
12 7 0
7 0
12 0
3 12 9 0
12 0
3 0
7 12 0
3 9 0
3 0
7 0
12 0
7 3 12 0
7 3 12 9 0
12 3 0
3 12 9 0
12 0
12 7 0
7 3 9 0
7 3 0
12 0
12 0
7 12 0
3 9 0
7 0
3 0
7 0
7 3 12 9 0
7 0
12 3 0
3 0
7 3 12 0
12 7 0
7 0
3 0
12 0
3 12 9 0
7 12 0
7 3 12 9 0
7 3 12 0
3 0
12 0
3 9 0
12 3 0
7 3 0
7 3 9 0
12 0
7 0
7 0
12 0
7 0
3 0
2 -13 -4 -8 0
2 4 1 8 0
2 4 1 8 13 0
13 4 1 0
4 2 1 0
13 1 0
2 8 1 0
13 2 1 0
2 4 1 13 0
4 1 0
2 1 8 13 0
-1 2 4 8 0
-1 2 8 13 0
4 -1 0
13 2 -1 0
-1 2 4 8 13 0
13 -1 0
2 8 -1 0
13 4 -1 0
-1 2 4 13 0
4 2 -1 0
13 0
2 0
4 0
4 0
4 0
4 0
4 0
4 0
4 0
4 0
4 0
10 0
10 0
1 4 0
-1 4 0
4 0
4 0
4 0
4 0
4 0
4 0
4 0
4 0
4 0
4 0
4 0
4 0
4 0
4 0
4 0
4 0
4 0
4 0
-8 2 0
2 8 1 0
2 8 -1 0
2 0
6 0
6 15 5 0
6 15 0
5 0
5 14 6 0
5 14 0
5 0
6 0
6 0
6 15 0
5 14 6 0
5 14 0
6 15 5 0
5 0
5 14 6 0
6 0
6 15 5 0
5 14 0
5 0
6 15 0
6 15 5 0
6 15 0
6 0
5 14 0
5 0
5 14 6 0
6 0
6 15 5 0
5 14 0
6 15 0
5 14 6 0
5 0
13 0
13 0
13 0
13 0
13 0
13 0
1 0
2 8 0
2 8 0
4 1 0
4 -1 0
4 0
4 0
4 0
4 0
4 0
4 0
4 0
1 0
16 1 0
16 -1 0
16 0
2 -8 0
2 8 1 0
2 8 -1 0
2 0
7 0
7 0
5 0
6 0
5 0
6 0
3 0
11 0
4 0
2 0
11 0
4 0
4 0
11 0
2 8 0
2 0
3 0
3 0
4 3 9 0
4 0
3 9 0
11 0
4 3 0
4 3 0
4 0
4 0
3 0
11 0
2 8 0
4 0
4 3 9 0
2 0
11 0
11 0
3 9 0
3 0
4 0
2 0
4 3 9 0
3 9 0
4 3 0
2 8 0
11 0
3 0
4 0
4 0
11 0
3 0
11 0
3 0
2 0
4 3 0
11 0
2 8 0
3 9 0
3 0
11 0
4 0
4 3 9 0
11 0
4 0
4 0
7 1 0
7 -1 0
7 0
1 0
-1 4 0
4 0
2 0
3 0
2 0
2 8 3 0
3 9 2 0
3 0
2 8 0
3 9 0
2 0
3 9 2 0
3 9 0
3 0
2 8 3 0
2 8 0
2 0
2 8 0
3 9 0
2 8 3 0
3 0
3 9 2 0
3 9 2 0
3 0
2 8 0
2 0
3 9 0
2 8 3 0
2 0
2 8 0
2 8 3 0
3 9 2 0
3 0
3 9 0
2 0
3 0
13 0
13 0
13 0
13 0
1 4 0
-1 4 0
4 0
1 0
7 -1 0
7 0
1 0
4 0
4 0
4 0
4 0
4 0
4 0
4 0
4 0
4 0
4 0
4 0
4 0
4 0
4 0
4 0
4 0
4 0
4 0
4 0
4 0
4 0
4 0
4 0
4 0
4 0
4 0
4 0
4 0
4 0
4 0
4 0
4 0
4 0
16 1 0
16 -1 0
16 0
2 -8 0
2 8 1 0
2 8 -1 0
2 0
1 4 0
-1 4 0
4 0
1 0
5 14 6 0
6 15 5 0
6 0
5 14 0
6 15 0
5 0
5 0
6 0
1 0
16 -1 0
16 0
3 0
3 9 0
3 0
3 9 0
3 0
3 0
3 9 0
3 0
3 9 0
3 0
5 0
6 0
7 0
7 0
7 0
6 15 0
5 14 6 0
6 0
5 14 0
6 15 5 0
5 0
6 15 5 0
5 0
7 0
6 15 0
5 14 6 0
7 0
5 14 0
6 0
6 15 5 0
6 0
6 15 0
7 0
5 0
5 14 0
5 14 6 0
7 0
5 14 0
6 15 5 0
5 0
7 0
6 15 0
6 0
5 14 6 0
7 0
5 0
6 0
7 0
7 0
7 0
7 0
7 0
7 0
7 0
7 0
7 0
7 0
10 1 0
10 -1 0
10 0
2 -16 -8 0
2 8 1 0
2 1 16 8 0
2 1 16 0
16 1 0
-1 2 16 8 0
-1 2 16 0
2 8 -1 0
16 -1 0
16 0
2 0
12 0
3 0
7 0
12 3 0
12 7 0
3 12 9 0
7 3 12 0
12 0
7 0
7 12 0
3 9 0
3 0
7 3 9 0
7 3 0
3 0
12 0
7 0
7 3 12 9 0
7 0
12 0
12 0
7 3 12 9 0
3 9 0
7 3 9 0
3 12 9 0
3 0
3 0
12 7 0
7 3 0
7 0
7 12 0
12 0
12 0
7 0
7 0
7 3 12 0
12 3 0
12 7 0
12 3 0
3 0
3 9 0
7 3 0
3 12 9 0
12 0
7 3 12 0
7 0
7 3 9 0
7 0
7 3 12 9 0
7 12 0
12 0
7 0
12 0
3 0
3 0
12 7 0
12 0
3 12 9 0
12 0
7 0
7 3 12 0
3 0
7 3 12 9 0
7 0
7 3 0
3 9 0
7 0
12 3 0
7 3 9 0
12 0
7 12 0
7 0
3 0
12 0
5 14 6 0
6 15 0
4 0
6 15 5 0
5 14 0
5 0
4 0
6 0
6 15 0
4 6 0
4 5 0
6 15 5 0
6 15 4 0
5 14 0
4 15 5 6 0
5 14 6 0
5 14 4 0
4 0
4 14 5 6 0
6 15 0
4 6 0
4 5 0
6 15 5 0
6 15 4 0
5 14 0
4 15 5 6 0
5 14 6 0
5 14 4 0
4 0
4 14 5 6 0
6 15 0
5 14 6 0
6 0
5 14 0
5 0
6 15 5 0
6 0
5 0
2 0
3 0
3 9 0
3 0
3 9 2 0
2 8 0
2 0
2 8 3 0
2 8 3 0
3 9 0
2 0
3 9 2 0
2 8 0
3 0
2 0
3 0
2 8 0
2 8 3 0
3 9 2 0
3 9 0
3 9 2 0
3 9 0
2 8 3 0
2 8 0
2 0
3 0
2 8 0
3 0
3 9 0
2 0
2 0
3 0
13 0
-8 2 0
2 8 1 0
2 8 -1 0
2 0
16 1 0
16 -1 0
16 0
4 0
4 0
13 4 0
13 0
13 0
13 0
13 0
1 0
7 -1 0
7 0
1 0
1 0
10 1 0
10 -1 0
10 0
2 -16 -8 0
2 8 1 0
2 1 16 8 0
16 1 0
2 1 16 0
2 8 -1 0
-1 2 16 8 0
-1 2 16 0
16 -1 0
16 0
2 0
3 0
12 0
2 0
7 0
11 0
7 3 9 0
2 0
7 0
12 7 0
11 2 0
3 9 0
12 0
7 0
2 8 11 0
7 3 12 0
3 12 9 0
3 0
12 0
7 0
7 12 0
11 0
7 3 12 9 0
11 0
12 3 0
2 8 0
3 0
7 3 0
11 0
2 0
12 0
12 3 0
12 0
11 2 0
3 12 9 0
7 3 9 0
11 0
7 0
11 0
7 0
7 3 0
3 9 0
2 0
12 0
2 0
7 12 0
7 3 12 9 0
7 3 12 0
7 0
11 0
2 8 11 0
12 7 0
2 8 0
3 0
3 0
12 0
7 12 0
11 2 0
11 0
7 0
7 0
12 3 0
7 0
3 9 0
3 0
12 0
2 0
11 0
7 3 12 9 0
3 0
2 8 0
11 0
2 0
7 3 9 0
7 3 0
3 12 9 0
12 7 0
12 0
7 3 12 0
2 8 11 0
12 0
7 0
12 0
3 12 9 0
7 3 0
3 0
11 0
2 8 11 0
7 3 9 0
7 0
7 0
11 0
3 0
2 8 0
11 2 0
7 3 12 9 0
11 0
3 9 0
2 0
12 3 0
12 0
2 0
12 7 0
7 3 12 0
7 12 0
12 0
10 1 0
10 -1 0
10 0
10 0
10 0
4 0
4 0
4 0
4 0
4 0
4 0
4 0
4 0
4 0
3 0
3 0
3 9 0
3 9 0
3 0
3 9 0
3 0
3 0
3 9 0
3 0
3 9 0
3 0
3 9 0
3 0
-8 2 0
2 8 1 0
2 8 -1 0
2 0
10 0
10 0
-14 -15 6 0
-6 -14 5 0
-5 -15 6 0
-14 5 -15 0
15 1 5 6 0
6 15 1 0
1 14 5 6 0
5 14 1 0
-1 14 5 6 0
6 15 -1 0
-1 15 5 6 0
5 14 -1 0
5 0
6 0
1 0
5 0
5 14 0
5 14 6 0
6 15 0
6 0
6 15 5 0
5 0
5 14 0
5 14 6 0
6 15 0
6 0
6 15 5 0
2 1 0
2 1 8 0
2 -1 0
2 8 0
2 0
4 0
4 0
4 0
4 0
4 0
4 0
4 0
4 0
4 0
4 0
4 0
4 0
4 0
4 0
4 0
4 0
4 0
4 0
4 0
12 0
7 0
3 0
7 12 0
12 0
7 3 9 0
12 3 0
7 0
3 0
3 12 9 0
12 7 0
12 0
7 3 12 9 0
7 0
7 3 0
7 3 12 0
3 9 0
3 0
7 0
12 0
7 0
12 0
3 9 0
7 0
7 3 0
12 0
7 3 12 9 0
7 12 0
12 7 0
3 0
3 0
7 3 9 0
12 0
7 0
7 3 12 0
12 3 0
3 12 9 0
12 7 0
7 0
12 0
7 3 9 0
3 0
7 3 0
7 0
12 0
7 0
3 0
7 3 12 0
7 3 12 9 0
7 12 0
3 9 0
12 3 0
3 12 9 0
12 0
12 0
12 0
7 0
7 12 0
3 9 0
7 3 12 0
3 0
7 0
3 12 9 0
3 0
12 3 0
12 0
7 0
12 7 0
7 3 12 9 0
7 3 9 0
7 3 0
7 0
3 0
12 0
3 0
2 0
2 0
2 8 0
3 0
3 9 0
2 0
3 0
3 9 0
2 0
2 0
3 0
2 8 0
3 0
3 9 0
2 0
2 8 0
2 0
3 0
3 0
2 0
2 8 0
3 0
3 9 0
2 0
3 0
4 0
4 0
13 1 0
13 -1 0
13 0
1 0
1 13 0
-1 13 0
13 0
1 0
1 0
13 0
13 0
13 0
13 0
7 0
3 0
7 3 12 0
7 3 0
12 0
7 3 9 0
3 12 9 0
7 12 0
12 7 0
12 0
12 3 0
3 9 0
7 3 12 9 0
7 0
3 0
12 3 0
7 12 0
7 3 9 0
7 3 12 0
7 0
3 9 0
7 3 12 9 0
7 3 0
12 7 0
12 0
3 12 9 0
12 0
7 0
3 0
12 3 0
7 12 0
7 3 9 0
7 3 12 0
7 0
3 9 0
7 3 12 9 0
7 3 0
12 7 0
12 0
3 12 9 0
12 0
7 0
2 -8 0
2 8 1 0
2 8 -1 0
2 0
5 0
6 0
6 15 0
5 14 6 0
5 14 0
6 15 5 0
6 0
5 0
3 0
2 0
3 9 2 0
3 9 0
2 0
2 8 3 0
3 0
2 8 0
3 9 2 0
2 8 3 0
2 0
2 8 0
3 0
3 9 0
2 8 0
2 8 3 0
2 0
3 9 0
3 0
3 9 2 0
3 9 2 0
3 9 0
2 0
2 8 3 0
2 8 0
3 0
2 8 0
3 0
3 9 0
2 0
3 0
2 0
10 0
10 0
10 0
10 0
10 0
10 0
10 0
10 0
10 0
10 0
1 0
-1 4 0
4 0
10 0
10 0
10 0
10 0
10 0
10 0
10 0
10 0
10 0
10 0
10 0
10 0
10 0
10 0
10 0
10 0
10 0
10 0
10 0
10 0
10 0
10 0
10 0
4 3 0
4 0
5 14 0
7 3 12 0
6 15 5 0
5 14 6 0
5 14 0
14 5 6 0
12 0
5 14 0
6 15 0
6 0
6 15 0
2 0
7 12 0
3 0
3 12 0
12 0
5 0
15 5 6 0
14 5 6 0
4 3 9 0
7 3 12 9 0
6 15 0
16 0
5 14 0
5 14 0
6 15 0
5 14 6 0
7 3 12 9 0
5 14 0
6 15 5 0
6 0
5 14 0
5 14 0
6 15 5 0
14 5 0
6 15 0
15 5 6 0
4 0
6 15 0
6 15 5 0
7 0
6 15 0
14 5 6 0
5 14 0
6 15 5 0
7 0
7 3 9 0
5 14 0
12 0
6 15 0
3 9 0
4 0
5 14 6 0
5 14 6 0
4 0
7 0
6 15 5 0
4 0
3 0
5 14 0
2 0
5 14 6 0
6 15 5 0
5 0
6 15 5 0
3 12 0
7 0
5 14 6 0
5 14 0
5 0
12 0
4 0
2 0
5 14 0
4 0
5 14 0
5 0
2 8 0
3 0
14 5 0
4 0
6 15 5 0
7 3 0
3 0
6 15 0
2 8 0
15 5 6 0
5 14 6 0
7 12 0
5 14 6 0
6 15 5 0
5 0
6 15 0
7 12 0
3 12 0
7 3 9 0
5 14 7 0
7 0
6 15 0
6 15 5 0
6 15 0
2 0
5 0
5 14 6 0
3 9 0
5 14 0
3 12 9 0
7 3 0
4 3 9 0
6 15 5 0
5 14 0
16 0
6 15 5 0
4 3 0
7 5 0
6 15 0
6 15 5 0
7 0
7 0
5 0
7 0
6 0
6 15 0
5 14 0
5 14 0
5 14 0
5 0
4 3 0
2 0
6 15 0
6 15 0
5 14 6 0
5 14 0
16 0
7 0
5 14 6 0
3 0
4 0
7 0
6 15 5 0
5 0
5 14 0
6 15 5 0
6 15 0
7 0
12 0
5 14 0
5 0
7 0
5 0
3 9 0
5 14 0
5 14 0
3 0
7 0
5 14 0
7 5 0
3 12 0
5 14 0
7 3 0
2 8 5 0
5 0
6 15 0
3 9 0
5 14 6 0
4 0
5 14 6 0
3 9 0
7 0
5 14 6 0
5 14 0
5 14 6 0
6 15 0
2 0
6 15 0
16 0
7 3 0
6 15 0
6 15 5 0
4 0
5 0
6 15 0
7 14 5 0
5 14 6 0
4 3 9 0
5 14 6 0
5 14 0
6 15 5 0
6 15 5 0
12 0
7 0
6 15 5 0
3 0
6 15 0
15 5 6 0
7 12 0
6 15 0
14 5 0
6 15 5 0
5 14 6 0
6 15 5 0
3 9 0
5 14 0
14 5 6 0
15 5 6 0
5 0
5 14 0
6 15 5 0
2 0
4 3 9 0
2 0
6 15 0
5 0
5 14 6 0
12 0
4 0
5 14 6 0
6 15 0
7 0
5 14 0
7 12 0
2 0
5 0
14 5 0
7 0
5 14 0
6 15 0
5 14 6 0
7 0
7 0
3 9 0
3 0
6 15 0
7 0
5 14 0
14 5 0
12 0
15 5 6 0
3 9 0
2 14 5 0
3 0
7 3 12 9 0
4 0
3 0
14 5 0
5 14 6 0
6 0
3 12 9 0
12 0
5 0
5 14 6 0
3 0
3 9 0
6 15 5 0
3 0
7 0
7 3 12 9 0
5 14 6 0
4 0
3 0
14 5 6 0
5 14 6 0
14 5 0
3 12 9 0
5 14 6 0
6 15 0
6 15 5 0
6 0
2 0
6 15 0
5 14 0
7 3 12 0
5 14 0
5 14 0
7 3 9 0
5 14 0
6 15 5 0
15 5 6 0
6 15 0
4 0
12 0
2 8 0
5 0
16 0
7 3 12 0
14 5 6 0
5 14 0
6 0
6 0
4 3 0
12 0
5 14 0
6 15 0
3 12 9 0
3 9 0
5 14 0
4 0
12 0
4 3 0
7 3 9 0
5 14 0
14 5 6 0
4 0
6 15 0
7 3 12 0
7 0
5 14 6 0
7 12 0
3 0
5 14 0
6 15 5 0
16 0
4 3 9 0
5 0
5 14 6 0
6 15 5 0
7 12 0
5 14 0
6 15 0
6 15 0
16 0
5 14 0
7 12 0
3 0
12 0
6 15 5 0
14 5 0
7 12 0
6 0
5 0
15 5 6 0
7 3 0
6 15 0
5 14 0
3 0
5 14 6 0
3 0
2 0
6 15 0
2 0
6 15 0
7 3 12 0
4 0
4 3 9 0
3 12 0
6 15 0
7 5 0
6 15 5 0
6 15 5 0
6 15 0
7 0
14 5 6 0
4 0
5 14 0
15 5 6 0
7 3 12 0
6 15 0
15 5 6 0
14 5 0
3 12 0
5 14 0
5 14 0
12 0
7 12 0
5 14 0
5 14 0
6 15 5 0
6 15 0
5 14 6 0
4 0
3 9 0
6 15 5 0
3 0
12 0
7 3 12 0
6 15 5 0
3 9 0
6 15 0
5 14 0
6 15 0
5 0
6 15 5 0
6 15 0
5 0
6 15 5 0
7 3 0
7 0
7 0
5 14 6 0
5 14 6 0
6 0
7 0
5 14 6 0
5 14 0
5 14 0
3 9 0
5 14 6 0
12 0
6 15 5 0
3 9 0
5 14 6 0
2 0
4 0
4 0
3 12 9 0
6 0
6 15 0
3 9 0
5 14 0
5 0
7 0
6 0
4 3 0
4 3 0
7 0
6 15 5 0
14 5 0
16 0
6 15 0
7 12 0
2 0
2 0
5 14 0
4 3 9 0
7 12 0
5 0
16 0
5 14 0
4 3 0
6 15 5 0
2 0
6 15 5 0
5 14 6 0
12 0
6 15 0
5 14 6 0
5 0
6 15 5 0
6 15 0
12 0
5 14 0
7 0
6 15 0
7 0
3 9 0
3 0
14 5 6 0
7 3 12 9 0
7 5 0
5 14 6 0
15 5 6 0
6 15 5 0
12 0
7 0
14 5 6 0
14 5 6 0
6 15 5 0
5 0
5 14 0
5 14 6 0
12 0
6 15 5 0
16 0
6 15 5 0
6 15 0
5 14 0
7 0
14 5 0
16 0
7 3 0
5 14 0
3 0
6 15 0
5 14 6 0
6 15 0
3 0
5 14 0
5 14 6 0
5 14 0
6 15 0
5 14 0
15 5 6 0
4 0
3 0
7 3 9 0
5 14 6 0
5 14 0
7 12 0
5 14 6 0
14 5 0
2 0
16 0
14 5 0
6 15 0
4 3 0
2 8 0
5 14 0
5 14 6 0
7 3 9 0
2 8 0
16 0
5 0
5 14 0
7 0
6 15 5 0
5 14 0
7 0
6 0
12 0
7 0
12 0
5 14 0
2 0
5 14 0
6 15 0
5 14 0
3 12 9 0
14 5 6 0
7 3 9 0
6 15 0
6 15 5 0
5 14 0
5 14 0
4 0
2 0
5 0
5 14 0
3 9 0
6 15 0
5 14 6 0
6 15 0
7 12 0
4 3 9 0
5 14 0
3 12 9 0
6 15 0
6 15 5 0
5 14 0
7 0
5 0
5 14 0
5 14 7 0
5 14 0
6 15 0
6 15 0
5 14 6 0
4 0
15 5 6 0
14 5 6 0
12 0
6 15 5 0
7 12 0
5 14 0
3 0
7 0
5 0
7 0
7 0
7 3 0
5 14 0
6 15 0
12 0
4 0
4 0
7 3 9 0
6 15 5 0
4 0
6 0
4 3 9 0
3 12 9 0
4 0
5 14 6 0
16 0
5 14 0
5 0
5 14 0
7 3 12 9 0
3 9 0
4 0
7 0
5 14 6 0
5 14 0
5 0
6 15 0
2 0
7 0
4 0
6 15 0
4 3 0
5 14 6 0
5 0
5 14 0
7 0
7 12 0
2 8 5 0
5 14 0
4 0
5 14 6 0
7 3 12 9 0
5 14 0
6 15 5 0
5 0
4 3 9 0
5 0
3 9 0
7 0
6 15 5 0
3 0
3 0
14 5 0
6 15 5 0
5 0
5 0
2 8 0
3 0
7 14 5 0
3 0
5 14 6 0
5 14 6 0
6 15 0
6 0
15 5 6 0
3 12 0
6 15 0
5 14 6 0
5 14 6 0
5 14 0
6 15 5 0
3 0
6 15 0
3 12 0
5 14 0
3 9 0
5 0
7 0
4 0
5 14 6 0
14 5 6 0
6 15 0
6 15 5 0
3 0
6 15 5 0
3 0
5 14 0
6 15 0
7 3 12 0
7 3 12 9 0
5 14 6 0
4 0
2 14 5 0
5 0
5 0
5 0
7 0
5 0
6 0
5 0
6 0
6 0
6 0
2 0
5 0
5 0
5 0
5 0
5 0
5 0
5 0
6 0
5 0
6 0
6 0
5 0
5 0
5 0
7 0
5 0
6 0
12 0
3 0
5 0
6 0
3 0
5 0
5 0
6 0
5 0
6 0
5 0
6 0
3 0
6 0
7 0
6 0
6 0
5 0
5 0
3 0
7 0
6 0
7 0
5 0
12 0
5 0
6 0
6 0
6 0
12 0
5 0
6 0
5 0
5 0
6 0
6 0
5 0
6 0
5 0
16 0
6 0
6 0
7 0
6 0
6 0
6 0
6 0
5 0
6 0
5 0
5 0
6 0
5 0
7 0
6 0
6 0
6 0
12 0
5 0
4 0
5 0
6 0
5 0
5 0
5 0
5 0
7 0
3 0
7 0
6 0
7 3 12 9 0
6 15 0
6 15 0
5 14 0
5 14 0
12 0
6 15 0
4 0
3 12 9 0
5 14 6 0
7 3 0
3 12 0
7 3 0
6 15 0
6 15 5 0
2 0
6 15 5 0
5 14 0
7 12 0
15 5 6 0
15 5 6 0
5 14 0
5 0
6 15 0
6 15 0
16 0
12 0
5 0
4 3 0
7 3 0
16 0
5 14 0
5 14 0
6 15 5 0
5 14 0
5 14 6 0
7 0
16 0
6 15 0
3 12 0
5 14 6 0
5 14 0
14 5 6 0
6 15 5 0
12 0
6 15 5 0
5 14 6 0
7 0
5 0
3 9 0
5 14 0
2 14 5 0
7 0
6 15 0
5 0
5 14 0
5 0
7 5 0
5 14 6 0
15 5 6 0
5 14 0
6 15 0
7 0
7 0
7 3 12 9 0
4 3 0
4 0
7 0
7 0
6 15 5 0
14 5 0
6 15 0
2 8 5 0
3 9 0
3 9 0
6 15 0
2 0
5 14 0
3 0
7 3 12 0
14 5 6 0
4 3 9 0
3 0
5 14 0
5 0
7 12 0
7 0
3 0
3 9 0
5 14 6 0
15 5 6 0
7 0
5 14 0
5 14 6 0
3 0
5 14 6 0
4 0
6 15 5 0
6 15 0
7 0
7 3 12 9 0
5 14 6 0
5 0
16 0
6 15 5 0
6 0
12 0
4 3 9 0
7 0
5 14 0
4 0
5 14 0
5 14 6 0
4 0
3 0
4 0
5 14 7 0
4 0
6 15 5 0
6 15 0
5 0
5 14 6 0
6 15 5 0
3 0
7 12 0
6 15 0
6 15 5 0
3 9 0
12 0
3 9 0
5 14 0
6 15 5 0
5 14 0
6 0
6 15 0
6 15 5 0
3 12 0
4 0
6 15 5 0
5 14 0
7 0
4 0
12 0
5 14 0
5 14 6 0
5 14 6 0
6 0
6 15 0
5 14 0
15 5 6 0
7 3 9 0
16 0
7 3 12 0
7 3 9 0
6 15 0
5 0
5 14 6 0
5 14 0
3 0
5 14 0
5 14 6 0
6 15 5 0
6 15 5 0
14 5 6 0
3 12 9 0
6 0
6 15 5 0
5 14 0
5 14 0
2 0
3 12 9 0
5 14 6 0
14 5 6 0
12 0
5 0
2 8 0
5 14 6 0
6 15 5 0
5 0
5 14 0
12 0
7 0
6 15 5 0
7 5 0
5 14 0
14 5 6 0
5 14 6 0
4 3 0
3 0
5 14 0
3 0
6 15 0
3 0
4 3 0
6 15 0
7 0
6 15 0
3 9 0
4 0
6 0
5 14 0
16 0
3 0
5 0
15 5 6 0
4 3 9 0
7 3 12 9 0
15 5 6 0
14 5 0
14 5 0
7 3 9 0
3 0
4 0
4 0
5 0
6 15 0
5 0
2 8 0
12 0
7 12 0
4 3 0
3 0
4 0
6 0
5 14 0
7 3 12 0
4 3 9 0
5 14 6 0
3 9 0
6 15 0
5 14 0
6 15 0
3 9 0
5 0
4 0
12 0
5 0
7 0
5 14 0
5 14 6 0
5 0
6 15 0
7 12 0
6 15 0
6 15 5 0
6 15 0
6 15 0
7 0
2 0
2 0
5 14 0
7 14 5 0
7 0
7 12 0
5 14 0
5 14 0
6 0
5 14 6 0
6 15 0
6 15 5 0
16 0
7 0
4 3 9 0
12 0
6 15 5 0
14 5 0
6 15 5 0
4 0
7 12 0
6 15 0
5 14 0
6 15 0
7 3 9 0
5 14 0
2 8 0
6 15 5 0
5 14 0
7 3 0
2 0
5 14 6 0
14 5 0
2 0
5 0
6 15 0
7 0
6 15 0
5 14 6 0
6 15 5 0
5 14 0
4 0
5 14 0
12 0
3 0
6 15 5 0
5 14 6 0
7 0
14 5 6 0
5 14 0
5 14 0
14 5 6 0
3 12 0
5 0
3 12 9 0
5 0
5 14 0
14 5 0
2 0
6 15 0
7 12 0
6 15 0
5 14 0
7 0
5 14 6 0
6 15 5 0
3 9 0
5 14 6 0
7 3 12 0
6 15 5 0
5 14 0
6 15 0
4 0
5 14 6 0
14 5 0
6 15 0
2 0
2 0
5 14 6 0
3 0
5 0
3 0
6 0
6 0
3 0
6 0
6 0
6 0
5 0
6 0
6 0
5 0
6 0
5 0
6 0
5 0
6 0
6 0
5 0
5 0
5 0
6 0
5 0
7 0
6 0
5 0
5 0
3 0
5 0
6 0
5 0
6 0
6 0
6 0
6 0
12 0
6 0
6 0
7 0
16 0
5 0
5 0
6 0
5 0
7 0
5 0
6 0
5 0
5 0
5 0
12 0
5 0
12 0
6 0
6 0
4 0
12 0
3 0
5 0
7 0
5 0
5 0
6 0
6 0
5 0
5 0
7 0
6 0
5 0
7 0
5 0
5 0
6 0
5 0
7 0
5 0
6 0
6 0
5 0
7 0
3 0
5 0
5 0
5 0
5 0
2 0
6 0
5 0
6 0
6 0
6 0
6 0
5 0
6 0
5 0
5 0
5 0
5 0
7 0
12 0
3 0
7 3 9 0
3 9 0
7 0
12 7 0
12 0
12 0
3 0
7 0
7 3 12 9 0
12 0
7 0
7 3 0
12 3 0
3 12 9 0
3 0
7 3 12 0
7 12 0
7 3 0
7 0
7 0
7 12 0
7 0
7 3 12 0
12 0
12 7 0
3 0
3 0
12 0
7 3 12 9 0
3 9 0
3 12 9 0
12 0
7 3 9 0
12 3 0
3 0
12 3 0
7 3 0
3 12 9 0
7 3 9 0
7 0
12 0
7 3 12 9 0
12 7 0
12 0
7 3 12 0
7 12 0
7 0
3 9 0
7 0
12 0
3 0
7 3 9 0
3 12 9 0
12 0
7 0
7 3 12 9 0
7 0
12 3 0
7 0
3 9 0
3 0
7 12 0
7 3 0
3 0
7 3 12 0
12 0
12 7 0
12 0
12 0
3 0
7 0
10 1 0
10 -1 0
10 0
6 15 0
6 15 5 0
5 14 0
6 0
5 0
5 14 6 0
5 0
6 0
6 0
5 14 0
5 14 6 0
5 0
6 15 5 0
6 15 0
5 0
6 0
4 0
4 0
4 0
4 0
4 0
4 0
4 0
4 0
-8 2 0
2 8 1 0
2 8 -1 0
2 0
16 0
16 0
16 0
16 0
16 0
16 0
16 0
16 0
16 0
16 0
16 0
16 0
16 0
4 0
4 0
4 0
4 0
4 0
4 0
7 0
7 0
7 0
7 0
7 0
7 0
7 0
7 0
4 0
4 0
4 0
4 0
4 0
4 0
1 4 0
1 13 0
-1 4 0
-1 13 0
4 0
13 0
10 0
10 0
13 -8 0
13 2 0
13 0
13 -8 0
13 2 0
13 0
4 0
4 0
4 0
4 0
4 0
4 0
4 0
4 0
4 0
5 0
6 0
6 15 5 0
5 14 0
5 14 6 0
6 15 0
6 0
5 0
2 -8 0
2 8 1 0
2 8 -1 0
2 0
16 1 0
16 -1 0
16 0
16 0
16 0
16 0
3 9 0
16 0
3 0
16 0
3 0
3 0
3 0
16 0
16 0
3 0
16 0
3 9 0
3 9 0
16 0
16 0
16 0
3 0
3 9 0
16 0
3 9 0
3 9 0
16 0
3 0
3 9 0
16 0
16 0
3 9 0
3 9 0
16 0
3 0
16 0
3 0
16 0
16 0
16 0
16 0
16 0
3 9 0
3 0
16 0
3 9 0
16 0
3 9 0
3 0
3 9 0
16 0
16 0
3 0
3 9 0
3 0
3 0
16 0
16 0
3 0
3 0
3 0
16 0
16 0
16 0
16 0
16 0
16 0
16 0
3 0
3 0
16 0
16 0
16 0
16 0
16 0
16 0
3 0
3 0
16 0
16 0
3 0
16 0
16 0
3 0
3 0
3 0
3 9 0
16 0
3 9 0
3 9 0
16 0
16 0
16 0
3 0
3 9 0
16 0
3 9 0
3 9 0
16 0
3 9 0
16 0
16 0
16 0
16 0
3 0
16 0
3 0
16 0
16 0
3 0
16 0
3 0
16 0
3 0
16 0
3 0
3 0
3 0
16 0
16 0
3 0
16 0
16 0
16 0
16 0
16 0
16 0
16 0
7 0
7 0
4 0
4 0
4 0
4 0
4 0
4 0
4 0
4 0
4 0
7 0
10 7 0
10 0
7 10 0
7 0
10 0
10 0
7 10 0
10 7 0
7 0
10 0
7 0
10 7 0
7 0
7 10 0
10 0
10 0
7 0
7 0
7 0
10 0
7 10 0
10 7 0
10 0
7 0
7 10 0
10 7 0
10 0
10 0
7 0
10 0
7 10 0
10 7 0
7 0
10 0
7 0
10 0
7 0
4 1 0
4 -1 0
4 0
6 0
5 0
6 15 1 0
5 14 1 0
15 1 5 6 0
1 14 5 6 0
6 15 -1 0
-1 15 5 6 0
5 14 -1 0
-1 14 5 6 0
5 0
6 0
1 0
16 1 0
16 -1 0
16 0
10 0
10 0
10 0
10 0
10 0
10 0
10 0
10 0
10 0
10 0
10 0
1 0
1 0
-8 2 0
2 -8 0
-8 2 0
1 10 0
-1 10 0
10 0
10 0
10 0
13 0
13 0
13 0
13 0
13 0
13 0
-8 0
2 0
13 0
-8 0
2 0
13 0
4 1 0
4 -1 0
4 0
5 14 0
6 15 5 0
6 15 0
6 0
5 14 6 0
5 0
6 0
5 0
10 0
10 0
7 1 0
7 -1 0
7 0
3 0
12 0
7 0
7 3 9 0
12 3 0
7 3 0
7 0
12 0
3 9 0
3 0
12 0
12 7 0
3 12 9 0
7 3 12 0
7 0
3 0
7 12 0
7 3 12 9 0
7 0
12 0
3 0
7 3 12 0
3 0
7 3 0
12 0
3 9 0
12 0
12 7 0
3 12 9 0
7 0
7 12 0
7 3 9 0
12 3 0
7 3 12 9 0
12 0
7 0
7 0
7 3 12 9 0
3 0
7 0
7 3 0
7 0
3 12 9 0
7 3 9 0
12 7 0
3 0
12 0
7 0
3 9 0
12 3 0
7 12 0
7 3 12 0
12 0
12 0
12 0
7 0
12 0
7 12 0
12 3 0
7 3 0
7 3 12 9 0
3 12 9 0
12 7 0
12 0
7 0
3 0
3 0
3 9 0
7 3 12 0
7 0
7 3 9 0
12 0
3 0
7 0
10 0
10 0
10 0
10 0
10 0
10 0
10 0
10 0
10 0
10 0
10 0
10 0
10 0
10 0
10 0
10 0
10 0
10 0
10 0
10 0
10 0
10 0
10 0
10 0
10 0
1 0
3 0
4 3 9 0
3 9 0
4 3 0
4 0
4 0
4 0
3 9 0
4 0
4 3 9 0
4 3 0
3 0
4 0
3 0
4 3 9 0
4 0
3 9 0
4 3 0
4 3 9 0
3 9 0
4 0
3 0
4 0
4 3 0
10 1 0
10 -1 0
10 0
13 0
4 0
13 0
4 0
13 0
4 0
13 0
13 0
4 0
4 0
4 0
4 0
13 0
13 0
13 0
4 0
13 0
4 0
4 0
13 0
-14 16 0
15 6 0
15 5 6 0
-14 16 0
5 0
14 5 6 0
14 5 0
6 0
-5 16 0
-5 16 0
-5 16 0
15 5 6 0
5 14 0
-14 16 0
6 15 0
14 5 6 0
6 0
15 5 6 0
6 0
14 5 6 0
-14 16 0
5 0
15 6 0
5 14 0
14 5 6 0
-14 16 0
5 0
6 15 0
-5 16 0
14 5 0
-14 16 0
6 15 0
-5 16 0
-5 16 0
5 14 0
15 5 6 0
10 0
10 0
3 9 -11 0
3 9 -11 0
4 0
4 0
4 0
4 0
4 1 0
4 -1 0
4 0
7 1 0
7 -1 0
7 0
6 0
13 0
5 0
6 15 5 0
5 14 6 0
6 0
5 0
6 15 0
13 0
5 14 0
13 0
6 15 0
5 14 6 0
13 0
5 14 0
5 0
6 0
13 0
6 15 5 0
6 0
13 0
6 15 0
13 0
5 0
6 15 5 0
5 14 0
5 14 6 0
6 15 5 0
5 14 6 0
6 0
5 14 0
6 15 0
13 0
5 0
13 0
5 0
6 0
13 0
13 0
10 0
4 0
4 0
10 0
10 -1 0
10 4 -1 0
10 0
4 0
10 4 0
10 0
16 0
16 0
6 15 5 0
5 14 6 0
5 0
5 14 0
6 0
6 15 0
5 0
6 0
10 7 0
7 10 0
7 0
10 0
7 0
10 0
7 0
10 0
7 10 0
7 0
10 0
10 7 0
10 0
7 0
7 0
10 7 0
7 10 0
10 0
7 10 0
10 7 0
7 0
7 0
10 0
10 0
10 0
7 0
10 0
7 0
10 7 0
7 10 0
7 10 0
7 0
7 0
10 0
10 0
10 7 0
10 0
7 0
1 0
1 0
4 0
13 0
4 0
13 0
13 4 0
4 0
13 0
4 0
13 0
13 4 0
1 10 0
-1 10 0
10 0
3 9 0
3 9 0
4 0
4 0
1 0
4 -1 0
4 0
10 0
10 0
-8 2 0
2 8 1 0
2 8 -1 0
2 0
1 4 0
-1 4 0
4 0
7 0
7 0
7 1 0
7 -1 0
7 0
1 0
4 0
4 0
4 0
10 0
10 0
4 0
4 0
4 0
10 0
10 0
4 0
10 0
4 0
10 0
10 0
4 0
4 0
10 0
10 0
4 0
2 8 0
2 8 0
2 8 0
2 8 0
2 8 0
2 8 0
2 8 0
2 8 0
2 8 0
2 8 0
1 0
7 0
7 0
7 0
7 0
7 0
7 0
13 0
13 0
13 0
13 0
13 0
13 0
-8 2 0
2 8 1 0
2 8 -1 0
2 0
1 0
1 0
1 13 0
-1 13 0
13 0
5 14 0
6 15 0
5 14 6 0
6 15 5 0
5 0
6 0
7 1 0
7 -1 0
7 0
4 0
4 0
4 0
4 0
4 0
4 0
4 0
4 0
4 0
4 0
4 0
4 0
4 0
4 0
4 0
4 0
4 0
4 0
1 10 0
-1 10 0
10 0
1 13 0
-1 13 0
13 0
7 1 0
7 -1 0
7 0
7 0
7 0
7 0
7 0
7 0
7 0
7 0
7 0
7 0
1 0
-1 4 0
4 0
1 4 0
-1 4 0
4 0
4 0
4 0
4 0
4 0
4 0
4 0
4 0
4 0
4 0
4 0
4 0
4 0
4 0
4 0
4 0
4 0
4 0
4 0
-8 2 0
2 8 1 0
2 8 -1 0
2 0
16 1 0
16 -1 0
16 0
-8 0
2 0
13 0
-8 0
2 0
13 0
-8 0
2 0
13 0
-8 0
2 0
13 0
16 1 0
16 -1 0
16 0
4 1 0
4 -1 0
4 0
10 0
10 0
10 0
10 0
10 0
10 0
10 0
10 0
10 0
4 0
4 0
3 0
3 0
3 9 0
3 0
3 9 0
3 0
3 9 0
3 0
3 9 0
3 0
10 1 0
10 -1 0
10 0
16 0
16 0
16 0
13 0
13 0
10 1 0
10 -1 0
10 0
1 4 0
-1 4 0
4 0
1 4 0
-1 4 0
4 0
1 0
1 0
4 0
2 0
3 0
3 9 0
4 0
3 0
2 0
4 0
4 0
2 8 0
4 0
2 0
2 0
2 0
2 0
3 9 0
4 0
3 0
2 8 0
2 0
4 0
4 0
4 0
3 9 0
4 0
2 0
2 8 0
3 0
2 0
4 0
2 0
4 0
4 0
3 0
4 0
3 9 0
4 0
2 0
2 0
2 0
4 0
4 0
2 8 0
3 0
2 0
2 8 0
2 8 3 0
3 9 0
2 0
3 0
3 9 2 0
2 0
3 9 2 0
3 0
3 9 0
2 8 0
2 8 3 0
3 9 2 0
2 8 3 0
2 8 0
3 0
2 0
3 9 0
2 8 3 0
3 0
2 8 0
2 0
3 9 2 0
3 9 0
3 9 0
2 8 0
3 0
2 0
2 0
3 0
1 0
3 0
3 0
3 9 0
3 0
4 1 0
4 1 0
4 -1 0
4 0
4 0
4 0
4 0
4 0
6 15 0
5 14 6 0
6 15 5 0
5 0
5 14 0
6 0
5 0
6 0
-8 2 0
2 8 1 0
2 8 -1 0
2 0
3 0
3 9 0
3 0
3 0
3 9 0
3 0
3 9 0
3 0
3 9 0
3 0
1 4 0
-1 4 0
4 0
16 1 0
16 -1 0
16 0
3 0
2 0
3 0
2 0
3 9 0
2 8 0
2 8 3 0
3 9 2 0
2 8 0
2 8 3 0
3 9 0
3 9 2 0
3 0
2 0
2 8 3 0
3 9 2 0
2 8 0
3 9 0
2 0
3 0
3 0
3 9 2 0
2 8 3 0
3 9 0
2 0
2 8 0
3 0
3 9 0
2 0
2 8 0
2 0
3 0
1 10 0
-1 10 0
10 0
7 0
12 0
3 0
12 7 0
7 3 12 9 0
7 12 0
7 0
7 0
12 0
7 0
3 12 9 0
7 3 12 0
7 3 0
7 3 9 0
3 9 0
3 0
12 3 0
12 0
3 0
12 0
3 12 9 0
7 12 0
3 0
7 3 9 0
12 0
7 0
7 0
7 3 12 0
7 3 0
12 0
7 3 12 9 0
3 0
12 7 0
3 9 0
12 0
12 3 0
7 0
12 7 0
7 0
3 9 0
12 3 0
3 0
7 3 0
7 0
12 0
12 0
7 3 9 0
7 3 12 0
7 12 0
3 12 9 0
12 0
7 3 12 9 0
7 0
3 0
7 0
7 3 9 0
3 0
3 12 9 0
3 0
3 9 0
12 7 0
12 0
12 0
7 12 0
7 0
7 3 12 0
7 0
7 3 12 9 0
12 3 0
12 0
7 3 0
7 0
12 0
3 0
1 0
4 1 0
4 -1 0
4 0
2 -16 -8 0
16 0
2 0
2 8 0
16 0
2 8 0
2 0
16 0
16 0
16 0
2 8 0
2 0
16 0
2 8 0
16 0
16 0
2 0
16 0
2 0
4 1 0
4 -1 0
4 0
1 4 0
-1 4 0
4 0
12 0
7 12 0
7 3 12 0
12 3 0
7 0
7 0
12 7 0
3 0
12 0
7 3 12 9 0
3 12 9 0
12 0
3 0
3 9 0
7 0
7 3 0
7 3 9 0
12 0
7 0
3 12 9 0
3 0
7 12 0
3 0
12 7 0
7 3 12 0
7 0
12 3 0
7 3 9 0
7 3 12 9 0
3 9 0
7 3 0
12 0
7 0
12 0
12 0
7 0
3 12 9 0
3 0
7 12 0
3 0
12 7 0
7 3 12 0
7 0
12 3 0
7 3 9 0
7 3 12 9 0
3 9 0
7 3 0
12 0
7 0
12 0
10 1 0
10 -1 0
10 0
16 1 0
16 -1 0
16 0
16 0
16 0
16 0
16 0
12 0
16 0
16 0
3 0
7 0
12 0
7 3 9 0
7 12 0
7 3 12 0
3 0
7 3 12 9 0
12 0
7 0
12 3 0
12 7 0
7 0
3 9 0
7 3 0
3 12 9 0
7 12 0
7 0
7 0
12 0
12 3 0
12 7 0
7 3 9 0
16 0
3 9 0
16 0
3 12 9 0
7 3 12 0
7 0
12 0
3 0
7 3 12 9 0
3 0
7 3 0
16 0
12 0
7 12 0
7 0
7 0
12 0
12 3 0
12 7 0
7 3 9 0
16 0
3 9 0
16 0
3 12 9 0
7 3 12 0
7 0
12 0
3 0
7 3 12 9 0
3 0
7 3 0
16 0
12 0
3 0
2 0
2 8 0
2 0
3 0
3 9 0
2 0
3 9 0
2 8 0
3 0
3 0
2 0
3 9 0
2 8 0
2 0
3 9 0
3 0
2 8 0
3 0
2 0
1 0
12 0
7 0
3 0
12 7 0
12 3 0
3 0
7 0
12 0
12 0
12 0
7 3 0
7 3 9 0
7 0
3 0
3 9 0
7 3 12 0
7 3 12 9 0
7 12 0
3 12 9 0
7 0
12 0
12 0
7 0
3 0
12 0
7 0
7 3 12 9 0
3 9 0
7 3 9 0
3 12 9 0
12 7 0
7 0
7 3 12 0
7 3 0
7 12 0
12 3 0
3 0
12 7 0
7 0
7 0
3 0
12 0
7 3 12 0
3 0
3 9 0
7 3 9 0
7 0
12 0
3 12 9 0
12 0
7 3 0
7 3 12 9 0
7 12 0
12 3 0
7 3 12 9 0
12 7 0
12 0
12 3 0
12 0
7 3 0
3 0
7 3 12 0
7 0
7 12 0
7 0
12 0
3 0
3 12 9 0
7 3 9 0
3 9 0
7 0
12 0
7 0
3 0
1 0
3 0
2 0
2 0
3 0
2 8 3 0
2 8 0
3 9 2 0
3 9 0
3 9 2 0
2 0
3 9 0
3 0
2 8 3 0
2 8 0
2 0
3 9 0
2 8 3 0
2 8 0
3 9 2 0
3 0
3 9 2 0
2 8 3 0
3 0
2 8 0
2 0
3 9 0
2 0
3 9 2 0
2 8 0
3 0
3 9 0
2 8 3 0
3 0
2 0
7 0
3 0
-14 5 0
12 0
7 3 12 0
12 0
7 12 0
12 7 0
3 12 9 0
7 3 0
7 0
-14 5 0
12 3 0
7 3 9 0
7 0
12 0
3 0
7 3 12 9 0
12 0
3 0
7 0
3 9 0
12 -1 0
-1 -14 5 0
3 -1 0
7 -1 0
7 0
7 3 0
7 3 9 0
12 0
3 0
3 9 0
7 12 0
7 0
7 0
7 3 12 9 0
12 3 0
-14 5 0
12 0
3 12 9 0
12 0
7 3 12 0
12 7 0
3 0
3 0
12 0
7 0
-14 5 0
3 0
2 0
3 9 2 0
2 8 3 0
3 9 0
2 0
2 8 0
3 0
3 0
2 8 0
11 0
11 3 0
11 0
3 9 11 0
2 8 3 0
4 0
3 9 2 0
4 2 0
3 0
2 0
3 9 0
4 0
3 9 0
2 4 8 0
2 0
2 8 0
3 9 11 0
3 9 0
3 9 2 0
2 8 0
2 8 3 0
4 0
3 0
4 2 0
11 3 0
11 0
2 0
3 0
2 4 8 0
3 9 0
11 0
2 8 0
2 0
4 0
3 9 0
2 0
2 8 3 0
2 8 0
3 9 2 0
3 0
3 0
3 9 11 0
11 3 0
4 0
4 0
3 9 0
4 2 0
2 8 0
11 0
3 0
2 8 0
2 0
3 9 0
2 4 8 0
2 0
11 0
3 0
2 0
10 0
10 0
10 0
10 0
16 0
16 0
16 0
16 0
16 0
16 0
16 0
16 0
16 0
16 0
16 0
16 0
16 0
1 10 0
-1 10 0
10 0
13 16 1 0
13 1 0
16 1 0
1 16 13 0
13 -1 0
16 -1 0
-1 16 13 0
13 16 -1 0
16 0
13 0
1 10 0
-1 10 0
10 0
16 0
16 1 0
16 -1 0
16 0
16 0
16 2 0
2 8 0
2 8 16 0
16 0
16 0
2 8 16 0
16 0
2 8 0
16 2 0
16 0
16 0
2 0
16 2 0
16 0
2 8 16 0
16 0
2 8 0
16 0
2 0
16 0
1 0
5 14 6 0
5 0
6 15 5 0
5 14 0
6 15 0
6 0
6 0
5 0
1 4 0
-1 4 0
4 0
2 -8 0
2 8 1 0
2 8 -1 0
2 0
2 0
3 0
2 4 0
12 0
7 0
7 0
7 0
12 0
2 8 0
7 12 0
4 0
7 3 0
3 9 2 0
2 8 3 0
3 9 0
7 0
3 0
7 3 0
7 3 9 0
3 12 0
7 3 12 9 0
12 0
3 9 0
3 12 9 0
-14 5 0
2 0
7 0
3 0
7 3 12 0
7 3 9 0
7 12 0
7 12 0
3 0
3 9 0
2 0
3 0
3 0
2 0
7 3 12 9 0
2 4 8 0
12 0
3 12 0
7 3 12 0
12 0
2 8 0
3 0
12 0
2 0
3 12 9 0
7 0
3 9 0
4 0
7 12 0
4 0
2 8 0
7 3 9 0
3 0
12 0
7 12 0
12 0
7 3 12 0
7 0
3 9 0
3 9 0
12 0
2 4 0
7 0
2 8 0
4 0
12 0
7 0
2 4 8 0
3 12 9 0
3 9 0
3 12 0
3 0
3 12 9 0
2 0
7 12 0
3 9 2 0
2 0
7 0
3 0
3 12 0
7 3 12 9 0
3 0
-14 5 0
2 8 3 0
12 0
3 0
4 0
2 0
7 0
4 0
12 0
7 3 12 0
7 3 0
7 3 0
7 0
2 0
2 8 0
7 12 0
7 3 9 0
7 12 0
3 0
7 3 12 9 0
3 9 0
2 8 0
3 0
-14 5 0
3 0
7 0
2 8 3 0
2 0
7 0
12 0
2 0
3 9 2 0
3 9 0
12 0
3 0
2 8 0
3 12 0
2 4 0
3 0
3 0
3 12 9 0
7 12 0
12 0
2 0
12 0
3 0
4 0
3 9 0
7 0
3 0
7 3 9 0
2 8 0
12 0
7 3 12 9 0
2 0
12 0
3 9 0
7 3 12 0
7 3 12 0
7 3 12 9 0
2 0
3 12 9 0
7 0
7 12 0
2 4 8 0
3 9 0
2 8 0
7 3 9 0
7 0
4 0
7 0
7 12 0
12 0
12 0
7 0
3 0
7 3 0
7 3 0
4 0
-14 5 0
2 0
7 12 0
2 8 0
7 0
3 0
3 9 0
3 12 0
3 0
7 0
12 0
2 0
2 0
3 0
12 0
-14 5 0
3 0
7 0
1 10 0
-1 10 0
10 0
1 10 0
-1 10 0
10 0
1 0
10 -1 0
10 0
3 0
2 0
2 8 3 0
3 9 2 0
3 9 0
2 8 0
3 0
2 0
3 9 0
3 9 2 0
2 8 3 0
2 0
3 0
2 8 0
2 0
3 9 0
3 9 2 0
3 0
2 8 3 0
2 8 0
2 0
3 9 0
2 8 0
3 9 2 0
2 8 3 0
3 0
2 0
2 8 0
3 9 0
3 0
2 0
3 0
1 0
4 1 0
4 -1 0
4 0
10 0
10 0
10 0
10 0
-8 2 0
2 8 1 0
2 8 -1 0
2 0
3 0
2 0
2 8 3 0
3 9 0
2 0
2 8 0
3 0
3 9 2 0
3 0
2 8 0
3 9 0
3 9 2 0
2 0
2 8 3 0
2 0
3 0
3 9 2 0
2 8 0
2 8 3 0
3 9 0
2 0
3 0
2 8 3 0
3 9 0
3 9 2 0
2 8 0
3 0
3 9 0
2 0
2 8 0
2 0
3 0
1 0
16 1 0
16 -1 0
16 0
-8 2 0
2 8 1 0
2 8 -1 0
2 0
4 0
7 0
7 0
7 0
4 0
7 0
7 0
7 0
4 0
7 0
4 0
7 0
4 0
7 0
7 0
4 0
7 0
7 0
7 0
4 0
7 0
7 0
7 0
4 0
3 0
2 0
3 9 0
2 8 3 0
3 0
2 0
3 9 2 0
2 8 0
2 0
2 8 0
3 9 0
3 0
2 8 3 0
3 9 2 0
3 9 2 0
3 9 0
2 8 0
2 0
2 8 3 0
3 0
3 9 0
3 0
3 9 2 0
2 8 0
2 0
2 8 3 0
3 9 0
3 0
2 0
2 8 0
2 0
3 0
2 -16 -8 0
2 8 1 0
2 1 16 8 0
2 1 16 0
16 1 0
2 8 -1 0
-1 2 16 0
16 -1 0
-1 2 16 8 0
16 0
2 0
1 4 0
-1 4 0
4 0
3 9 0
3 9 0
7 1 0
7 -1 0
7 0
10 0
10 0
10 0
10 0
10 0
10 0
10 0
10 0
10 0
10 0
10 0
10 0
10 0
10 0
10 0
10 0
10 0
10 0
4 0
4 0
4 0
4 0
4 0
4 0
4 0
4 0
1 0
16 -1 0
16 0
-8 2 0
2 8 1 0
2 8 -1 0
2 0
16 1 0
16 -1 0
16 0
5 0
5 14 0
6 15 0
6 0
5 14 6 0
6 15 5 0
6 0
5 0
16 0
16 0
16 0
16 0
4 0
10 0
10 0
10 0
4 0
4 0
10 0
4 0
10 0
10 4 0
4 0
10 4 0
10 4 0
10 0
10 0
4 0
4 0
4 0
10 4 0
4 0
10 0
4 0
4 0
10 0
4 0
10 4 0
10 4 0
10 0
10 0
10 0
4 0
10 0
10 0
4 0
4 0
10 0
10 0
4 0
10 0
10 0
4 0
4 0
4 0
10 0
10 0
4 0
10 0
10 4 0
4 0
4 0
10 0
4 0
10 0
4 0
10 0
10 0
10 0
10 4 0
4 0
10 4 0
4 0
4 0
10 0
10 0
4 0
4 0
10 0
4 0
10 0
4 0
16 1 0
16 -1 0
16 0
1 10 0
-1 10 0
10 0
6 15 0
5 0
5 14 0
6 0
5 0
6 0
1 0
16 -1 0
16 0
1 0
2 0
3 0
2 0
3 0
2 0
3 12 0
7 3 9 0
12 0
3 9 0
2 4 0
3 9 0
3 0
2 0
4 0
16 0
7 0
4 0
16 0
2 8 0
7 3 0
7 12 0
3 0
2 0
2 8 0
3 12 9 0
7 12 0
7 12 0
2 8 0
4 0
3 12 9 0
4 0
7 0
5 0
7 3 12 9 0
4 0
2 8 3 0
7 3 12 0
12 0
2 4 8 0
2 8 0
12 0
7 0
16 0
12 0
3 9 0
12 0
2 0
4 0
14 5 0
12 0
2 0
7 0
7 3 0
7 3 9 0
3 9 0
7 0
3 0
5 0
2 0
2 0
2 0
3 9 2 0
16 0
4 0
7 0
2 8 0
4 0
7 3 12 0
3 12 0
3 0
16 0
5 0
4 0
3 0
2 0
3 0
7 12 0
7 3 12 9 0
3 9 0
7 0
2 8 0
3 9 0
7 0
7 3 12 9 0
4 0
4 0
4 0
2 0
7 0
2 0
2 0
3 9 0
3 12 9 0
2 4 0
12 0
12 0
4 0
5 0
3 0
16 0
4 0
2 8 0
3 0
2 0
16 0
7 12 0
7 12 0
4 0
12 0
7 3 0
5 0
4 0
4 0
2 0
12 0
3 0
7 0
16 0
2 0
2 0
7 3 0
3 0
7 3 12 0
3 9 0
7 0
2 0
12 0
3 12 0
3 9 0
7 0
3 0
3 12 9 0
16 0
7 3 12 9 0
4 0
3 9 0
12 0
2 0
2 4 8 0
5 0
2 8 0
3 0
3 12 0
2 8 0
2 0
3 0
7 3 12 0
3 9 2 0
2 8 0
7 12 0
16 0
7 12 0
2 8 3 0
14 5 0
7 3 9 0
7 3 9 0
2 8 0
2 0
2 0
3 9 2 0
12 0
3 9 0
2 8 3 0
3 0
12 0
7 0
2 0
3 0
3 0
7 0
4 0
3 0
7 3 12 9 0
4 0
12 0
3 9 0
2 4 0
3 0
3 9 0
2 8 0
3 12 9 0
2 4 8 0
7 0
7 12 0
2 0
14 5 0
3 9 0
2 0
3 0
7 12 0
16 0
16 0
4 0
2 8 0
16 0
16 0
12 0
2 0
4 0
7 12 0
12 0
7 0
7 12 0
5 0
7 3 9 0
12 0
2 0
2 0
7 3 12 0
5 0
3 0
5 0
4 0
7 0
7 0
7 3 12 9 0
7 3 0
3 9 0
7 3 9 0
7 0
2 8 0
4 0
2 0
12 0
4 0
3 0
3 12 0
7 3 0
3 9 0
4 0
16 0
2 0
12 0
2 0
3 0
3 12 9 0
4 0
2 0
2 0
7 0
2 8 0
7 3 12 0
2 8 0
3 0
3 12 0
12 0
2 0
3 0
7 0
2 0
3 0
2 0
7 0
12 0
3 0
7 1 0
7 -1 0
7 0
7 0
7 0
-8 2 0
2 8 1 0
2 8 -1 0
2 0
10 0
10 0
10 0
10 0
10 -1 0
10 0
10 0
10 0
13 0
10 0
10 0
13 0
13 0
13 0
10 0
10 0
13 0
10 0
10 0
13 0
13 0
10 0
13 0
10 0
10 0
13 0
3 0
12 0
7 0
7 3 12 9 0
3 12 9 0
7 3 9 0
12 0
3 0
7 3 12 0
7 0
12 7 0
7 3 0
7 12 0
7 0
3 0
7 0
12 0
12 0
3 9 0
12 3 0
7 0
12 7 0
3 9 0
12 0
7 0
7 3 12 0
3 12 9 0
7 0
7 12 0
7 3 12 9 0
12 0
3 0
12 3 0
12 0
3 0
7 3 0
7 3 9 0
3 12 9 0
12 0
3 0
7 3 12 0
7 3 0
7 0
7 12 0
12 7 0
7 0
12 0
12 3 0
3 0
3 9 0
7 3 12 9 0
7 3 9 0
12 0
7 0
7 3 12 9 0
7 3 0
7 3 9 0
3 9 0
7 0
12 7 0
12 0
3 0
7 12 0
3 12 9 0
12 3 0
7 3 12 0
7 0
12 0
12 0
7 0
3 0
12 0
7 0
3 0
5 14 0
5 0
6 15 5 0
6 0
6 15 0
5 14 6 0
6 0
5 0
7 0
7 0
7 0
7 0
10 1 0
10 -1 0
10 0
10 0
10 0
4 0
4 0
4 0
4 0
12 0
3 0
2 0
7 0
11 0
12 0
3 0
7 3 0
12 0
11 0
7 3 12 0
12 3 0
11 2 0
7 0
3 0
12 7 0
3 12 9 0
3 9 0
2 8 11 0
7 0
2 0
11 0
2 0
7 3 12 9 0
11 0
7 0
12 0
7 12 0
7 3 9 0
2 8 0
2 8 11 0
7 0
7 0
7 12 0
7 3 12 9 0
12 7 0
3 0
3 0
11 0
11 2 0
12 0
11 0
7 3 9 0
12 0
2 0
7 3 12 0
3 12 9 0
11 0
2 8 0
2 0
12 0
7 3 0
3 9 0
7 0
12 3 0
2 0
3 0
2 0
7 3 12 9 0
12 0
7 0
7 0
7 3 9 0
7 3 12 0
11 0
3 9 0
11 0
11 0
12 7 0
12 3 0
12 0
2 8 11 0
7 0
3 0
7 3 0
7 12 0
11 2 0
3 12 9 0
12 0
2 8 0
2 0
12 0
7 0
7 0
3 0
12 3 0
11 0
11 2 0
7 3 9 0
7 3 12 9 0
7 3 0
3 12 9 0
7 0
2 0
12 7 0
3 9 0
2 8 11 0
12 0
11 0
2 8 0
12 0
11 0
7 12 0
3 0
7 3 12 0
10 0
10 0
10 0
10 0
1 10 0
-1 10 0
10 0
-8 2 0
2 8 1 0
2 8 -1 0
2 0
10 1 0
10 -1 0
10 0
10 1 0
10 -1 0
10 0
11 0
4 0
2 0
3 0
4 0
2 0
3 9 11 0
2 4 8 0
2 0
3 9 0
11 0
11 0
4 0
4 2 0
3 0
11 3 0
4 0
2 8 0
11 3 0
3 9 0
4 0
2 4 8 0
3 0
2 0
4 0
4 2 0
4 0
3 9 11 0
2 8 0
11 0
11 0
2 0
11 0
4 0
4 0
11 0
3 9 11 0
11 3 0
4 0
4 2 0
2 0
3 0
3 9 0
2 0
2 8 0
2 4 8 0
11 0
2 0
3 9 0
4 2 0
4 0
11 3 0
2 8 0
3 9 11 0
3 0
4 0
11 0
2 0
4 0
2 4 8 0
1 0
-8 2 0
2 8 1 0
2 8 -1 0
2 0
10 0
10 0
1 4 0
-1 4 0
4 0
2 -8 0
2 8 1 0
2 8 -1 0
2 0
10 0
10 0
10 0
10 0
10 0
10 0
10 0
10 0
10 0
10 0
10 0
10 0
10 0
10 0
4 1 0
4 -1 0
4 0
4 0
4 0
4 0
4 0
4 0
4 0
4 0
4 0
4 0
2 0
3 0
2 0
2 8 0
3 0
3 9 0
2 0
3 0
2 8 0
3 0
3 0
2 0
2 0
3 9 0
3 0
2 8 0
2 0
3 9 0
3 0
2 0
2 8 0
3 0
3 9 0
2 0
2 0
3 0
3 0
12 0
7 0
7 0
7 3 0
12 3 0
3 12 9 0
7 12 0
3 9 0
7 0
12 0
7 3 12 0
12 0
12 0
7 0
7 3 12 9 0
7 3 9 0
12 7 0
3 0
3 0
7 12 0
12 0
12 0
7 3 12 0
7 0
7 3 0
3 9 0
3 0
7 3 12 9 0
12 0
7 3 9 0
7 0
3 0
12 7 0
7 0
3 12 9 0
12 3 0
3 0
7 12 0
12 7 0
12 3 0
7 0
3 9 0
7 3 9 0
7 0
7 0
3 0
7 3 12 9 0
12 0
12 0
7 3 0
3 12 9 0
7 3 12 0
12 0
7 3 12 0
12 0
3 0
7 0
12 0
12 0
3 0
7 0
7 3 0
7 3 12 9 0
3 9 0
12 3 0
7 0
7 3 9 0
3 12 9 0
12 7 0
7 12 0
3 0
7 0
12 0
10 1 0
10 -1 0
10 0
2 0
3 0
2 8 3 0
2 0
3 9 0
3 9 2 0
2 8 0
3 0
2 8 3 0
3 0
3 9 2 0
2 8 0
2 0
3 9 0
2 0
3 9 0
2 8 3 0
2 8 0
3 9 2 0
3 0
2 8 3 0
3 9 0
3 0
2 0
2 8 0
3 9 2 0
2 8 0
2 0
3 9 0
3 0
3 0
2 0
4 0
4 0
10 0
10 0
1 13 0
-1 13 0
13 0
1 0
13 -1 0
13 -1 0
13 0
13 0
2 -8 0
2 8 1 0
2 8 -1 0
2 0
2 -13 -8 0
2 0
13 0
2 8 0
13 0
2 0
2 8 0
13 0
13 0
2 8 0
13 0
2 0
13 0
13 0
13 0
2 0
2 8 0
13 0
2 0
1 0
7 0
10 0
7 0
7 0
10 0
10 0
7 0
10 0
7 0
10 0
10 0
7 0
10 0
7 0
10 0
10 0
7 0
7 0
10 0
7 0
1 10 0
-1 10 0
10 0
3 0
12 0
16 0
2 0
7 0
16 0
12 3 0
7 0
2 8 0
12 0
16 0
12 0
3 9 12 0
16 0
7 0
16 0
2 16 0
2 0
2 0
3 9 0
7 0
2 0
2 16 8 0
3 0
2 0
2 16 8 0
2 16 0
12 0
12 0
12 3 0
3 9 12 0
3 0
7 0
7 0
7 0
16 0
16 0
16 0
2 0
2 8 0
3 9 0
2 0
16 0
7 0
2 16 0
2 16 8 0
3 9 12 0
16 0
12 3 0
12 0
3 0
2 0
16 0
7 0
3 9 0
16 0
2 8 0
7 0
12 0
16 0
2 0
2 0
7 0
2 0
2 16 0
16 0
12 0
7 0
3 0
3 9 12 0
3 9 0
16 0
2 0
7 0
2 8 0
2 0
16 0
12 3 0
12 0
2 16 8 0
16 0
12 0
16 0
7 0
3 0
2 0
10 0
10 0
5 0
6 0
6 15 0
5 14 0
5 14 6 0
6 15 5 0
6 0
5 0
6 15 5 0
5 14 6 0
6 15 0
5 14 0
5 0
6 0
5 14 0
6 15 5 0
5 14 6 0
6 0
6 15 0
5 0
6 15 5 0
5 14 0
6 0
6 15 0
5 14 6 0
5 0
3 0
2 0
2 8 3 0
12 0
3 0
7 0
4 0
3 12 9 0
3 12 0
7 12 0
2 8 0
12 0
3 0
7 3 12 0
2 0
7 0
2 4 0
2 0
2 4 8 0
7 3 0
3 0
3 9 0
12 0
7 3 9 0
3 9 0
2 8 0
3 9 2 0
2 8 0
3 9 0
7 3 12 9 0
7 0
2 0
7 12 0
4 0
4 0
3 0
2 0
7 0
12 0
4 0
7 0
2 8 0
3 9 0
3 9 0
2 8 0
4 0
4 0
7 12 0
2 0
7 3 12 9 0
7 12 0
2 0
2 4 0
7 3 0
7 3 12 0
12 0
12 0
3 0
3 9 0
2 0
2 8 3 0
2 8 0
3 0
3 0
2 0
3 12 9 0
2 4 8 0
3 0
3 9 2 0
7 0
3 12 0
7 3 9 0
7 0
2 0
3 9 0
3 9 2 0
3 0
12 0
2 8 3 0
3 0
2 8 0
2 0
2 4 8 0
7 0
7 3 0
2 8 0
2 0
3 9 0
2 0
3 9 0
3 0
3 0
2 8 0
7 12 0
12 0
7 3 12 9 0
2 0
4 0
7 0
3 12 0
4 0
4 0
3 9 0
7 3 9 0
3 0
7 0
7 12 0
12 0
3 0
2 0
7 3 12 0
12 0
2 4 0
2 8 0
3 12 9 0
2 0
12 0
2 0
3 0
7 0
3 0
1 0
4 0
4 0
4 0
4 0
4 0
4 0
4 0
4 0
10 0
10 0
6 15 5 0
6 0
6 15 0
5 0
5 14 6 0
5 14 0
4 1 0
4 -1 0
4 0
1 4 0
-1 4 0
4 0
1 4 0
-1 4 0
4 0
1 13 0
-1 13 0
13 0
2 0
3 0
2 0
3 9 2 0
2 8 3 0
3 9 0
3 0
2 8 0
3 9 0
3 9 2 0
2 8 3 0
3 0
2 0
2 8 0
2 8 3 0
2 8 0
3 9 0
3 9 2 0
2 0
3 0
3 9 2 0
2 0
2 8 3 0
3 9 0
3 0
2 8 0
2 8 0
3 0
2 0
3 9 0
2 0
3 0
2 0
3 0
3 9 0
2 8 0
3 0
2 8 3 0
2 0
3 9 2 0
2 0
2 8 3 0
2 8 0
3 0
3 9 2 0
3 9 0
2 0
2 8 0
2 8 3 0
3 0
3 9 2 0
3 9 0
3 0
3 9 0
2 0
2 8 0
2 0
3 0
13 1 0
13 -1 0
13 0
1 0
12 0
7 0
3 0
3 0
7 3 9 0
12 7 0
3 0
3 12 9 0
12 0
7 3 12 0
12 3 0
3 9 0
7 0
12 0
7 0
7 12 0
12 0
7 3 12 9 0
7 0
7 3 0
12 7 0
3 0
3 9 0
7 3 9 0
3 0
7 3 12 9 0
12 0
12 0
7 0
7 12 0
7 0
12 0
7 0
3 12 9 0
7 3 0
12 3 0
7 3 12 0
3 12 9 0
3 0
3 0
7 0
7 12 0
12 0
12 0
12 3 0
3 9 0
7 0
12 0
7 3 0
7 3 9 0
12 7 0
7 3 12 0
7 0
7 3 12 9 0
7 0
12 0
3 0
7 12 0
7 0
12 0
7 0
3 9 0
12 3 0
12 7 0
7 3 12 9 0
7 3 0
12 0
7 3 9 0
3 0
3 12 9 0
7 3 12 0
3 0
7 0
12 0
4 1 0
4 -1 0
4 0
1 10 0
-1 10 0
10 0
2 -8 0
2 8 1 0
2 8 -1 0
2 0
7 0
7 0
7 0
7 0
7 0
7 0
6 15 0
6 15 0
5 14 6 0
6 15 0
6 15 0
5 14 0
5 14 0
5 14 6 0
5 14 6 0
5 14 6 0
6 15 0
6 15 0
6 15 5 0
5 14 6 0
5 14 6 0
5 14 6 0
5 14 7 0
5 14 0
15 5 6 0
6 15 0
6 15 0
5 14 0
6 0
14 5 6 0
5 14 0
5 14 0
5 14 0
5 14 6 0
16 5 0
6 15 0
6 15 5 0
6 0
6 15 0
7 5 0
6 15 5 0
6 15 0
6 15 5 0
6 0
5 0
5 14 0
6 15 0
5 14 0
5 14 0
15 5 6 0
5 14 6 0
6 15 5 0
5 14 16 0
6 15 0
7 0
5 14 0
14 5 6 0
7 0
5 14 0
6 15 5 0
6 15 5 0
5 14 6 0
5 14 0
7 0
14 5 6 0
6 15 0
5 14 0
16 0
6 15 0
6 15 5 0
15 5 6 0
5 0
15 5 6 0
6 15 0
5 14 6 0
5 0
6 15 5 0
5 14 0
5 14 6 0
6 0
5 0
5 14 0
5 14 0
6 15 5 0
7 0
6 15 5 0
6 15 0
14 5 6 0
5 14 0
5 14 0
5 14 6 0
6 15 5 0
6 15 5 0
7 0
6 15 0
6 15 5 0
5 14 0
5 14 6 0
6 15 5 0
5 14 0
14 5 6 0
5 14 7 0
5 14 6 0
6 15 5 0
6 15 0
6 15 0
14 5 6 0
6 15 0
16 5 0
5 14 0
7 0
6 15 0
5 14 6 0
5 14 0
6 15 5 0
5 0
5 14 0
6 15 0
5 14 6 0
6 15 5 0
6 15 0
6 15 5 0
5 14 6 0
5 14 0
5 14 0
15 5 6 0
14 5 6 0
5 0
6 0
6 15 5 0
5 0
16 0
6 15 0
6 15 0
5 14 0
5 14 6 0
5 14 6 0
5 14 0
5 14 0
14 5 6 0
6 15 5 0
6 15 0
7 0
5 14 6 0
6 15 0
5 14 6 0
15 5 6 0
6 15 0
5 14 0
5 14 0
5 14 6 0
5 14 0
5 14 0
5 14 6 0
5 0
6 15 0
6 15 5 0
6 15 5 0
5 14 0
6 15 0
5 14 0
7 0
6 15 0
15 5 6 0
5 14 6 0
6 15 0
6 15 5 0
6 15 0
6 0
6 0
6 15 0
5 14 0
5 14 0
6 15 5 0
7 5 0
15 5 6 0
5 14 0
7 0
5 14 0
5 14 6 0
6 15 0
6 15 5 0
5 14 16 0
6 0
6 15 5 0
5 14 6 0
5 14 0
5 14 6 0
7 0
6 15 5 0
7 0
5 0
6 0
6 0
5 0
5 0
5 0
5 0
6 0
5 0
6 0
6 0
5 0
6 0
5 0
5 0
6 0
6 0
6 0
6 0
5 0
5 0
7 0
16 0
5 0
5 0
6 0
5 0
6 0
7 0
6 0
6 0
6 0
6 0
5 0
5 0
5 0
5 0
5 0
6 0
5 0
6 0
7 0
6 15 5 0
15 5 6 0
5 14 6 0
16 0
6 15 0
5 14 0
6 15 0
5 14 6 0
5 14 0
7 0
6 15 0
5 0
6 15 0
5 14 0
5 14 7 0
5 14 0
7 5 0
6 15 0
5 14 0
6 15 5 0
6 0
16 5 0
6 15 0
5 14 0
5 14 6 0
6 15 0
5 14 0
6 15 0
5 14 6 0
5 14 0
14 5 6 0
6 15 5 0
15 5 6 0
6 15 5 0
14 5 6 0
5 14 0
5 0
6 0
5 14 0
5 14 0
5 0
6 15 0
6 15 5 0
5 14 0
15 5 6 0
6 15 5 0
7 0
5 14 0
5 14 16 0
5 14 6 0
6 15 5 0
6 15 0
6 15 5 0
5 14 6 0
6 15 5 0
7 0
5 14 0
6 15 0
6 0
5 14 0
5 14 0
5 14 0
5 14 0
6 15 0
5 14 6 0
6 15 5 0
5 0
5 14 6 0
6 15 0
6 15 0
6 15 0
5 14 6 0
5 14 6 0
5 14 6 0
14 5 6 0
7 0
6 0
5 14 6 0
6 15 5 0
6 15 5 0
5 14 6 0
5 14 0
6 15 0
6 15 5 0
14 5 6 0
15 5 6 0
6 15 0
6 0
6 15 0
6 15 5 0
5 14 0
5 14 6 0
5 0
5 14 0
6 15 0
6 0
5 0
5 0
5 0
5 0
5 0
6 0
6 0
6 0
6 0
6 0
5 0
5 0
5 0
6 0
5 0
5 0
6 0
5 0
7 0
5 0
6 0
6 0
5 0
5 0
7 0
6 0
5 0
6 0
7 0
6 0
16 0
5 0
6 0
5 0
5 0
5 0
5 0
6 0
6 0
6 0
5 0
6 0
6 0
16 1 0
16 -1 0
16 0
4 0
4 0
4 0
4 0
4 0
4 0
4 0
4 0
4 0
12 0
7 0
3 0
7 3 9 0
12 0
7 3 0
7 12 0
3 0
12 0
3 0
12 0
7 0
7 0
7 3 12 9 0
12 7 0
12 3 0
7 3 12 0
7 0
3 12 9 0
3 9 0
12 0
3 0
7 3 12 0
3 12 9 0
12 0
3 9 0
7 0
7 0
7 3 0
7 3 9 0
7 3 12 9 0
7 12 0
7 0
12 3 0
12 0
3 0
12 7 0
7 3 12 0
3 9 0
3 12 9 0
7 3 12 9 0
12 3 0
7 0
7 3 9 0
3 0
7 12 0
7 0
7 0
12 0
12 0
3 0
12 0
12 7 0
7 3 0
7 12 0
3 0
7 3 9 0
7 0
7 0
3 0
7 3 0
7 3 12 9 0
12 3 0
12 0
12 7 0
3 9 0
12 0
12 0
7 3 12 0
3 12 9 0
7 0
12 0
3 0
7 0
5 0
6 15 5 0
5 14 6 0
6 0
6 15 0
5 14 0
6 0
5 0
1 4 0
-1 4 0
4 0
16 0
16 0
16 0
16 0
16 0
16 0
16 0
16 0
16 0
16 0
4 0
4 0
4 0
4 0
4 0
4 0
4 0
4 0
4 0
-5 -15 6 0
-14 5 -15 0
-6 -14 5 0
-14 -15 6 0
1 14 5 6 0
15 1 5 6 0
6 15 1 0
5 14 1 0
-1 14 5 6 0
6 15 -1 0
-1 15 5 6 0
5 14 -1 0
5 0
6 0
-6 -14 5 0
-14 -15 6 0
-14 5 -15 0
-5 -15 6 0
6 15 0
5 14 6 0
5 0
6 15 5 0
6 0
5 14 0
6 15 5 0
5 14 0
6 0
6 15 0
5 14 6 0
5 0
6 15 5 0
5 0
6 15 0
6 0
5 14 0
5 14 6 0
5 0
6 0
5 14 6 0
5 14 0
6 15 5 0
6 15 0
5 0
6 0
13 0
13 0
13 0
13 0
13 0
13 0
13 0
13 0
13 0
13 0
13 0
13 0
13 0
13 0
13 0
13 0
13 0
2 0
3 0
3 0
3 9 2 0
2 0
2 8 3 0
2 8 0
3 9 0
2 0
3 0
2 8 3 0
3 9 2 0
2 8 0
3 9 0
3 9 2 0
3 9 0
3 0
2 0
2 8 3 0
2 8 0
2 8 0
3 0
3 9 2 0
2 8 3 0
2 0
3 9 0
3 9 0
2 8 0
2 0
3 0
2 0
3 0
10 1 0
10 -1 0
10 0
1 0
10 0
10 0
-8 2 0
2 8 1 0
2 8 -1 0
2 0
-8 2 0
2 8 1 0
2 8 -1 0
2 0
1 10 0
-1 10 0
10 0
-15 1 0
-6 -15 0
-6 1 13 0
-6 13 1 0
-6 1 13 0
-1 13 -15 0
13 -15 -1 0
-1 13 -15 0
-6 -1 13 0
-6 13 -1 0
-6 -1 13 0
13 -15 0
13 -15 0
13 -15 0
-6 13 0
-14 -15 6 0
-6 -14 5 0
-14 5 -15 0
-5 -15 6 0
15 1 5 6 0
1 14 5 6 0
5 14 1 0
6 15 1 0
-1 15 5 6 0
5 14 -1 0
6 15 -1 0
-1 14 5 6 0
5 0
6 0
16 0
16 0
16 0
16 0
16 0
16 2 0
2 8 16 0
2 8 0
16 0
16 0
2 8 0
16 0
16 0
16 2 0
2 8 16 0
2 8 0
16 0
16 0
2 8 16 0
2 8 0
16 0
16 0
16 0
16 0
16 0
16 0
16 0
2 0
16 0
16 2 0
16 0
16 0
2 8 16 0
16 0
16 2 0
16 2 0
16 0
16 0
16 0
2 0
2 8 0
2 8 0
16 0
16 0
16 0
16 0
2 8 16 0
16 0
16 0
16 2 0
16 0
16 0
16 0
2 8 0
2 8 16 0
2 8 0
16 0
16 0
16 0
16 0
16 0
2 0
16 0
16 0
16 0
16 0
16 0
2 0
16 0
2 0
16 0
16 0
2 0
16 0
16 0
16 0
16 0
16 2 0
16 0
2 8 0
2 8 16 0
16 0
2 8 0
16 0
16 0
2 8 0
16 0
16 2 0
16 0
16 0
2 8 16 0
16 0
16 0
16 0
16 2 0
16 0
16 0
16 0
2 0
16 0
16 0
16 0
16 0
16 0
2 8 0
2 8 16 0
16 0
16 0
16 0
16 0
16 0
16 0
16 0
16 0
16 0
16 0
2 0
16 0
2 0
16 0
2 0
16 0
2 0
16 0
4 0
4 0
4 0
4 0
4 0
4 0
4 0
4 0
4 0
1 0
4 0
4 0
4 0
4 0
4 0
4 0
4 0
4 0
4 0
4 1 0
4 -1 0
4 0
1 13 0
-1 13 0
13 0
4 0
3 0
4 0
3 0
4 0
3 0
4 3 0
3 9 0
4 3 9 0
4 0
4 0
4 3 9 0
3 0
4 0
3 9 0
4 0
3 0
4 3 0
4 3 0
4 0
4 3 9 0
3 0
4 0
3 9 0
4 0
3 0
4 0
4 0
3 0
4 0
4 3 9 0
3 0
3 9 0
4 3 0
3 0
4 0
6 15 5 0
6 0
5 14 0
5 0
5 14 6 0
6 15 0
5 0
6 0
6 15 0
5 14 6 0
5 14 0
6 15 5 0
6 15 0
5 14 6 0
5 14 0
6 15 5 0
6 15 0
5 14 0
5 0
6 15 5 0
6 0
5 14 6 0
6 0
5 0
5 14 0
5 0
5 14 6 0
6 0
6 15 0
6 15 5 0
7 1 0
7 -1 0
7 0
-8 2 0
2 8 1 0
2 8 -1 0
2 0
1 0
16 1 0
16 -1 0
16 0
1 10 0
-1 10 0
10 0
2 0
3 0
2 8 3 0
2 0
3 9 0
2 8 0
3 9 2 0
3 0
2 8 0
3 0
3 9 2 0
3 9 0
2 8 3 0
2 0
2 0
2 8 3 0
2 8 0
3 0
3 9 0
3 9 2 0
2 8 3 0
3 9 2 0
3 9 0
2 8 0
3 0
2 0
2 8 3 0
3 9 0
3 9 2 0
2 0
2 8 0
3 0
2 0
3 0
2 3 0
2 0
3 0
10 0
10 0
13 0
13 0
13 0
13 0
13 0
13 0
13 0
13 0
13 0
7 1 0
7 -1 0
7 0
13 0
13 0
13 0
13 0
13 0
13 0
13 0
13 0
13 0
4 1 0
4 -1 0
4 0
16 1 0
7 1 16 0
7 1 0
7 1 16 0
-1 7 16 0
-1 7 16 0
16 -1 0
7 -1 0
7 0
16 0
13 0
13 0
4 0
4 0
1 10 0
-1 10 0
10 0
1 0
4 0
13 0
4 0
4 0
4 0
13 0
4 0
4 0
13 0
13 0
4 0
4 0
3 -9 0
3 9 1 0
3 9 -1 0
3 0
7 1 0
7 -1 0
7 0
2 -13 -4 -8 0
2 4 1 8 13 0
2 8 1 0
2 1 8 13 0
13 2 1 0
4 1 0
13 1 0
2 4 1 8 0
2 4 1 13 0
4 2 1 0
13 4 1 0
4 2 -1 0
4 -1 0
-1 2 4 8 13 0
-1 2 8 13 0
13 4 -1 0
-1 2 4 13 0
13 -1 0
-1 2 4 8 0
13 2 -1 0
2 8 -1 0
13 0
2 0
4 0
1 0
7 -1 0
7 0
4 10 0
7 1 0
7 -1 0
7 0
10 0
7 0
7 10 0
10 0
10 7 0
7 0
10 0
7 10 0
7 0
10 0
7 0
10 7 0
7 0
7 10 0
10 0
10 7 0
7 0
10 0
10 7 0
7 10 0
10 0
7 0
7 0
10 0
10 0
7 0
10 7 0
7 0
10 0
10 0
10 0
10 0
10 0
10 0
10 0
10 0
1 4 0
1 13 0
-1 4 0
-1 13 0
4 0
13 0
2 0
3 0
2 0
3 0
3 9 2 0
3 9 0
2 8 0
2 8 3 0
3 9 0
2 0
3 0
2 8 0
2 8 3 0
3 9 2 0
2 8 0
3 9 2 0
2 0
3 0
2 8 3 0
3 9 0
2 0
3 0
2 8 0
3 9 0
3 0
2 0
1 0
3 -9 0
3 0
3 9 0
3 9 0
3 0
3 0
3 9 0
3 9 0
3 0
3 0
13 1 0
13 -1 0
13 0
4 0
4 0
4 0
4 0
4 0
4 0
4 0
4 0
4 0
3 0
2 0
2 0
2 8 0
3 0
3 0
3 9 0
2 0
2 0
3 9 0
2 8 0
3 0
2 0
3 0
2 0
2 0
3 9 0
3 0
3 0
2 8 0
2 8 0
2 0
3 9 0
3 0
2 0
3 0
7 1 0
7 -1 0
7 0
16 1 0
16 -1 0
16 0
1 0
13 -1 0
13 -1 0
13 0
13 0
13 0
13 0
13 0
13 0
13 0
13 0
10 0
10 0
1 0
12 0
7 0
11 0
3 0
2 0
3 0
7 0
2 0
7 12 0
2 0
11 0
11 0
12 0
2 8 11 0
12 7 0
11 2 0
7 3 12 9 0
3 12 9 0
3 9 0
11 0
7 3 9 0
12 3 0
7 0
12 0
3 0
7 0
7 3 12 0
2 8 0
7 3 0
12 0
2 0
11 0
7 0
3 0
7 0
12 0
12 7 0
2 8 11 0
7 3 0
7 3 9 0
12 0
3 9 0
12 0
11 0
11 0
3 0
7 3 12 0
2 8 0
7 0
2 0
7 3 12 9 0
7 12 0
11 2 0
12 3 0
3 12 9 0
3 9 0
11 0
12 0
7 3 0
7 3 12 0
12 7 0
7 0
12 0
7 3 9 0
3 0
2 0
7 0
12 0
3 0
2 0
3 12 9 0
7 0
2 8 0
2 8 11 0
7 12 0
12 3 0
11 0
11 0
11 2 0
7 3 12 9 0
3 0
3 9 0
12 0
7 0
7 3 12 0
3 12 9 0
7 3 0
7 12 0
11 0
3 0
11 2 0
2 8 0
7 0
2 8 11 0
12 0
12 7 0
2 0
11 0
2 0
11 0
7 3 9 0
7 0
12 0
7 3 12 9 0
12 3 0
13 1 0
13 -1 0
13 0
1 0
16 -1 0
16 0
1 4 0
-1 4 0
4 0
3 0
7 0
12 0
7 3 9 0
12 7 0
3 0
3 9 0
7 3 0
12 0
7 12 0
12 0
3 12 9 0
7 0
12 0
7 0
12 3 0
7 0
7 3 12 0
3 0
7 3 12 9 0
3 0
12 0
7 0
7 3 12 9 0
12 0
7 3 9 0
3 12 9 0
7 0
3 9 0
3 0
7 3 0
7 0
12 0
7 3 12 0
12 7 0
12 3 0
7 12 0
3 12 9 0
7 3 9 0
12 0
12 7 0
7 3 0
12 3 0
3 0
7 3 12 9 0
7 0
7 0
7 0
12 0
3 0
3 9 0
7 12 0
7 3 12 0
12 0
12 0
12 7 0
7 0
7 12 0
3 12 9 0
3 9 0
12 0
7 3 12 9 0
7 3 12 0
7 3 9 0
12 0
7 3 0
7 0
7 0
3 0
12 3 0
3 0
3 0
12 0
7 0
10 1 0
10 -1 0
10 0
-8 2 0
2 8 1 0
2 8 -1 0
2 0
2 0
3 0
2 0
2 0
3 9 0
2 0
2 8 0
3 0
3 0
2 0
2 8 0
2 0
3 9 0
2 0
3 0
3 0
3 0
2 8 0
2 0
3 9 0
3 0
2 0
2 0
3 0
2 8 0
3 9 0
2 0
2 0
3 0
2 0
4 0
4 0
4 0
4 0
4 0
4 0
4 0
4 0
4 0
7 0
7 0
16 0
16 0
7 0
7 0
7 0
7 0
7 0
7 0
7 0
7 0
7 0
7 0
7 0
16 0
16 0
7 0
7 0
7 0
7 0
7 0
7 0
7 0
7 0
7 0
1 0
16 -1 0
16 0
7 0
12 0
3 0
7 0
3 0
7 3 9 0
3 12 9 0
12 0
12 7 0
12 3 0
12 0
3 0
7 12 0
12 0
7 3 12 0
7 3 12 9 0
7 0
7 3 0
7 0
3 9 0
7 0
7 12 0
7 3 9 0
12 0
12 3 0
3 0
7 0
12 7 0
12 0
7 3 0
12 0
3 0
3 12 9 0
7 0
7 3 12 0
3 9 0
7 3 12 9 0
12 3 0
3 0
12 0
3 12 9 0
7 3 0
3 0
7 0
3 9 0
7 0
12 7 0
7 12 0
7 3 12 9 0
12 0
7 3 12 0
7 3 9 0
7 0
12 0
7 0
7 12 0
12 7 0
7 3 9 0
12 0
3 0
3 12 9 0
7 3 12 9 0
12 0
7 0
3 9 0
3 0
12 0
12 3 0
7 3 0
7 3 12 0
7 0
3 0
7 0
12 0
10 0
10 0
10 1 0
10 -1 0
10 0
1 13 0
-1 13 0
13 0
4 0
4 0
4 0
4 0
5 0
6 15 0
6 0
5 14 0
5 0
6 0
6 15 5 0
5 14 6 0
5 0
6 15 0
5 14 0
6 0
-8 2 0
2 8 1 0
2 8 -1 0
2 0
4 1 0
4 -1 0
4 0
1 4 0
-1 4 0
4 0
6 15 5 0
6 0
5 14 0
6 15 0
5 0
5 14 6 0
6 0
5 0
10 0
10 0
7 0
7 0
7 0
7 0
7 0
7 0
7 0
7 0
7 0
7 0
10 0
10 0
10 0
10 0
10 0
10 0
10 0
10 0
10 0
10 0
10 -1 0
10 0
1 0
2 0
3 0
3 9 2 0
2 8 0
3 9 0
2 0
2 8 3 0
3 0
3 9 2 0
3 0
2 8 0
2 0
2 8 3 0
3 9 0
3 0
2 0
3 9 2 0
2 8 3 0
2 8 0
3 9 0
3 0
2 0
3 9 2 0
3 9 0
2 8 0
2 8 3 0
2 8 0
3 9 0
2 0
3 0
2 0
3 0
4 0
4 1 0
4 -1 0
4 0
4 0
4 0
4 0
4 0
4 0
4 0
4 0
4 0
-8 0
2 0
13 0
-8 0
2 0
13 0
10 0
10 0
10 0
10 0
10 1 0
10 -1 0
10 0
6 0
5 0
6 15 0
5 14 6 0
6 15 5 0
5 14 0
6 0
5 0
2 -8 0
2 8 1 0
2 8 -1 0
2 0
-8 2 0
2 8 1 0
2 8 -1 0
2 0
10 0
10 0
10 0
4 1 0
4 -1 0
4 0
-8 -13 2 0
2 8 1 0
13 2 1 0
13 1 0
2 1 8 13 0
2 8 -1 0
13 2 -1 0
13 -1 0
-1 2 8 13 0
13 0
2 0
10 0
10 0
16 1 0
16 -1 0
16 0
7 0
7 0
1 0
13 -1 0
4 -1 0
13 4 -1 0
4 0
13 4 0
13 0
1 0
2 -16 -8 0
2 8 1 0
2 1 16 0
16 1 0
2 1 16 8 0
2 8 -1 0
16 -1 0
-1 2 16 0
-1 2 16 8 0
16 0
2 0
10 0
10 0
1 0
10 1 0
10 -1 0
10 0
1 0
10 1 0
10 -1 0
10 0
4 0
4 0
4 0
4 0
4 0
4 0
4 0
4 0
4 0
10 1 0
10 -1 0
10 0
7 1 0
7 -1 0
7 0
-8 2 0
2 8 1 0
2 8 -1 0
2 0
6 15 5 0
5 0
6 0
5 14 6 0
6 15 0
5 14 0
6 0
5 0
4 1 0
4 -1 0
4 0
2 -13 -4 -8 0
4 0
2 8 13 0
2 8 0
13 0
13 0
4 0
2 0
13 2 0
2 8 13 0
13 2 0
4 0
2 8 0
4 0
13 0
2 0
13 0
2 8 13 0
2 0
4 0
2 8 0
13 0
4 0
13 0
13 2 0
13 2 0
13 0
2 8 0
2 0
4 0
4 0
2 8 13 0
13 0
13 0
2 0
4 0
-8 0
2 0
13 0
-8 0
2 0
13 0
11 0
3 0
7 0
2 0
12 0
12 3 0
7 0
12 0
2 8 0
11 0
7 0
3 12 9 11 0
2 0
7 0
11 12 0
11 3 0
3 9 12 0
2 0
2 7 0
2 7 8 0
12 0
3 0
12 3 11 0
3 9 0
3 9 11 0
11 0
3 0
3 12 9 11 0
3 9 12 0
12 3 11 0
11 0
7 0
7 0
2 0
11 3 0
3 9 11 0
12 0
2 7 0
11 12 0
2 7 8 0
12 0
3 9 0
7 0
11 0
12 3 0
2 8 0
2 0
3 9 0
7 0
2 8 0
2 7 0
11 0
12 3 11 0
7 0
3 9 12 0
12 0
3 12 9 11 0
2 0
2 7 8 0
12 3 0
7 0
11 0
11 3 0
12 0
2 0
3 9 11 0
11 12 0
3 0
12 3 0
7 0
2 0
11 12 0
3 12 9 11 0
3 9 0
3 9 12 0
7 0
11 0
7 0
12 0
2 8 0
3 0
2 0
11 0
11 3 0
2 7 0
12 3 11 0
2 7 8 0
12 0
3 9 11 0
3 0
2 0
12 0
7 0
11 0
4 1 0
4 -1 0
4 0
1 0
16 -1 0
16 0
3 0
2 0
3 0
3 9 0
3 9 2 0
2 8 0
2 8 3 0
2 0
2 0
2 8 3 0
3 0
2 8 0
3 9 2 0
3 9 0
3 0
2 8 0
2 8 3 0
3 9 0
2 0
3 9 2 0
2 8 0
3 9 0
2 8 3 0
3 0
2 0
3 9 2 0
2 8 3 0
3 9 2 0
2 0
3 0
2 8 0
3 9 0
3 0
2 0
4 0
4 0
1 0
7 1 0
7 -1 0
7 0
2 -13 -4 -8 0
4 1 0
2 4 1 8 0
2 4 1 13 0
13 2 1 0
13 1 0
13 4 1 0
2 1 8 13 0
4 2 1 0
2 4 1 8 13 0
2 8 1 0
13 2 -1 0
4 -1 0
-1 2 4 13 0
13 -1 0
13 4 -1 0
-1 2 4 8 0
2 8 -1 0
-1 2 4 8 13 0
4 2 -1 0
-1 2 8 13 0
13 0
2 0
4 0
1 0
7 0
7 0
7 0
7 0
7 0
7 0
7 0
7 0
7 0
12 0
7 0
3 0
7 0
12 0
3 0
7 12 0
3 12 9 0
7 0
3 0
12 0
7 12 0
7 3 12 0
3 12 0
3 0
7 3 9 0
12 0
7 3 12 9 0
7 0
12 0
3 9 0
7 3 0
7 0
7 3 9 0
7 12 0
7 3 12 9 0
3 0
7 0
12 0
7 3 0
3 0
3 9 0
7 12 0
3 12 0
12 0
7 0
3 12 9 0
3 0
7 0
7 0
12 0
7 3 12 0
12 0
7 0
7 0
12 0
3 0
7 12 0
7 3 12 0
7 12 0
12 0
3 0
3 12 0
3 0
7 3 9 0
3 12 9 0
7 0
7 0
3 9 0
7 3 0
12 0
7 3 12 9 0
12 0
12 0
7 0
3 12 0
7 0
3 0
7 0
12 0
12 0
3 12 9 0
7 0
7 3 12 0
3 0
12 0
7 3 9 0
7 3 12 9 0
3 9 0
3 0
7 3 0
7 12 0
7 12 0
3 0
12 0
7 0
3 0
7 0
11 0
2 0
12 0
7 3 12 0
7 0
7 3 9 0
11 0
12 3 0
3 9 0
12 0
11 0
12 0
2 0
7 0
7 3 12 9 0
7 3 0
11 2 0
3 0
12 0
11 0
7 0
7 12 0
3 12 9 0
2 0
2 8 0
3 0
2 8 11 0
12 7 0
12 0
7 0
7 12 0
2 0
3 9 0
12 0
7 3 9 0
7 3 12 0
12 3 0
7 0
3 12 9 0
3 0
11 2 0
11 0
2 8 11 0
7 3 12 9 0
11 0
2 0
12 7 0
7 0
12 0
3 0
2 8 0
11 0
7 3 0
7 0
7 0
11 0
2 8 0
12 0
3 0
3 12 9 0
2 0
2 0
11 2 0
12 0
7 0
7 3 0
3 9 0
3 0
12 3 0
12 7 0
7 3 9 0
11 0
2 8 11 0
7 12 0
11 0
12 0
7 3 12 0
7 3 12 9 0
7 3 12 0
12 7 0
12 0
12 0
7 0
7 3 12 9 0
7 0
3 9 0
3 0
11 0
3 0
2 8 11 0
12 3 0
11 2 0
2 8 0
7 12 0
3 12 9 0
11 0
7 0
12 0
2 0
7 3 0
2 0
7 3 9 0
11 0
12 0
2 0
7 0
3 0
11 0
16 0
16 0
16 0
16 0
16 0
16 0
16 0
16 0
16 0
3 0
2 0
2 0
3 9 2 0
3 9 0
2 8 3 0
2 8 0
3 0
2 8 3 0
3 9 0
2 8 0
3 9 2 0
2 0
3 0
2 8 0
2 8 3 0
3 0
3 9 2 0
3 9 0
2 0
3 0
2 8 0
2 0
3 9 0
2 0
3 0
4 1 0
1 4 0
-1 4 0
4 -1 0
4 0
3 0
2 0
2 8 3 0
2 0
3 0
3 9 2 0
2 8 0
3 9 0
3 9 2 0
2 0
2 8 0
12 0
16 0
2 8 0
3 0
12 3 0
2 0
2 0
3 9 0
7 0
2 0
3 0
7 0
2 16 8 0
16 0
7 0
2 8 3 0
16 0
3 9 0
3 12 9 0
16 0
12 0
2 16 0
3 9 2 0
16 0
3 9 0
7 0
3 0
12 0
16 0
2 0
3 0
2 0
2 0
7 0
3 9 0
2 8 0
3 12 9 0
2 16 8 0
2 0
12 3 0
2 8 0
2 16 0
16 0
2 8 3 0
16 0
12 0
7 0
2 8 3 0
12 0
7 0
2 0
3 0
16 0
3 9 2 0
3 0
2 0
2 8 0
3 9 0
16 0
3 0
3 9 2 0
12 0
2 0
12 0
2 8 3 0
16 0
2 0
2 8 0
2 16 8 0
2 0
16 0
3 9 0
3 9 0
16 0
3 0
7 0
12 3 0
2 0
3 12 9 0
7 0
2 16 0
7 0
2 8 0
2 0
7 0
16 0
3 0
12 0
3 0
2 0
4 1 0
4 -1 0
4 0
6 0
5 14 0
6 15 5 0
6 15 0
5 0
5 14 6 0
5 0
6 0
10 0
10 0
10 0
10 0
10 0
10 0
10 0
10 0
10 0
7 1 0
7 -1 0
7 0
6 15 5 0
6 15 0
6 15 5 0
5 14 0
5 14 0
6 15 0
5 14 6 0
5 14 6 0
6 15 0
5 14 0
6 15 0
5 14 0
6 15 5 0
5 14 6 0
6 15 5 0
5 14 6 0
5 0
6 0
5 0
6 0
5 14 6 0
6 15 0
6 15 5 0
6 15 0
5 14 0
5 0
6 15 0
5 14 0
6 0
5 14 6 0
5 14 0
6 15 5 0
5 0
5 0
6 0
6 0
6 0
5 0
1 10 0
-1 10 0
10 0
3 0
2 0
3 9 0
3 9 2 0
2 8 3 0
2 8 0
2 0
3 0
2 8 0
3 0
2 8 3 0
3 9 2 0
2 0
3 9 0
2 0
3 0
3 9 0
2 8 3 0
2 8 0
3 9 2 0
3 9 0
2 0
2 8 3 0
3 0
3 9 2 0
2 8 0
3 0
2 8 0
2 0
3 9 0
2 0
3 0
1 0
3 0
11 0
2 0
4 0
3 9 11 0
4 2 0
2 8 4 0
11 0
4 0
11 3 0
2 0
3 0
4 0
11 0
2 8 0
3 9 0
3 9 11 0
4 0
2 0
3 0
4 2 0
11 0
4 0
11 3 0
2 8 4 0
2 8 0
11 0
3 9 0
3 9 11 0
2 8 0
3 0
4 0
2 8 4 0
2 0
4 2 0
11 0
3 9 0
4 0
11 3 0
11 0
11 0
11 0
2 8 4 0
4 2 0
3 9 11 0
4 0
3 0
11 3 0
4 0
3 9 0
2 0
2 8 0
13 4 0
13 4 0
4 0
4 0
4 0
4 0
4 0
4 0
4 0
4 0
4 0
4 1 0
4 -1 0
4 0
2 -13 -8 0
2 8 13 0
2 8 0
13 2 0
13 0
13 0
2 0
2 8 0
13 0
2 8 13 0
13 0
2 0
13 2 0
13 2 0
2 0
2 8 13 0
13 0
2 8 0
13 0
13 0
13 2 0
2 8 0
13 0
2 0
2 8 13 0
13 0
2 0
7 0
7 10 0
10 0
10 7 0
10 0
7 0
7 0
10 7 0
10 0
10 0
7 0
7 10 0
10 7 0
7 0
7 10 0
10 0
10 0
7 0
10 0
7 0
10 0
7 0
7 10 0
10 7 0
10 0
7 0
4 0
4 0
4 0
4 0
4 0
4 0
4 0
4 0
4 0
16 1 0
16 -1 0
16 0
13 0
13 0
10 0
10 0
10 0
7 1 0
7 -1 0
7 0
13 1 0
13 -1 0
13 0
4 0
4 0
4 0
4 0
4 0
4 0
4 0
4 0
4 0
4 0
3 0
2 0
2 8 3 0
3 9 0
2 8 0
3 0
2 0
3 9 2 0
3 9 2 0
2 0
2 8 3 0
3 0
3 9 0
2 8 0
3 9 0
2 0
2 8 3 0
3 9 2 0
3 0
2 8 0
3 9 2 0
2 0
3 0
2 8 0
3 9 0
2 8 3 0
3 9 0
2 8 0
3 0
2 0
3 0
2 0
1 13 0
-1 13 0
13 0
2 0
3 0
3 9 0
2 8 0
3 0
2 8 3 0
3 9 2 0
2 0
2 8 0
2 8 3 0
3 9 0
3 9 2 0
3 0
2 0
3 9 2 0
2 8 0
2 8 3 0
3 0
2 0
3 9 0
3 9 2 0
2 0
2 8 3 0
3 0
2 8 0
3 9 0
3 0
2 8 0
2 8 3 0
3 9 0
3 9 2 0
2 0
2 0
3 0
4 0
4 0
4 0
4 0
4 0
4 0
4 0
4 0
4 0
7 1 0
7 -1 0
7 0
-8 2 0
2 8 1 0
2 8 -1 0
2 0
1 0
16 1 0
16 -1 0
16 0
1 4 0
-1 4 0
4 0
7 0
7 0
7 0
7 0
2 -16 -8 0
2 1 16 8 0
2 8 1 0
2 1 16 0
16 1 0
2 8 -1 0
16 -1 0
-1 2 16 8 0
-1 2 16 0
16 0
2 0
5 14 0
6 15 0
6 15 5 0
5 14 6 0
2 0
3 0
3 0
3 9 0
2 8 0
2 0
3 0
2 8 0
3 9 0
2 0
3 9 0
2 8 0
3 0
2 0
2 0
3 0
2 8 0
3 9 0
3 0
2 0
1 0
13 -1 0
4 -1 0
13 4 -1 0
-1 4 13 0
13 -1 0
4 -1 0
13 4 0
13 0
4 0
4 0
4 13 0
13 0
16 1 0
16 -1 0
16 0
4 1 0
4 -1 0
4 0
10 0
10 0
1 0
12 0
11 0
2 0
3 0
7 0
3 0
11 0
7 0
7 3 12 9 0
7 3 0
7 0
12 0
2 0
11 0
11 0
7 3 12 0
12 3 0
3 12 9 0
7 12 0
12 0
2 8 0
7 3 9 0
12 7 0
3 9 0
12 0
3 0
7 0
7 3 0
3 0
3 9 0
7 0
7 12 0
12 0
12 0
3 12 9 0
3 0
7 3 12 0
2 8 0
7 0
7 3 12 9 0
7 3 9 0
11 0
11 0
7 0
2 0
11 0
12 0
12 3 0
12 7 0
3 12 9 0
11 0
7 3 0
12 0
11 0
2 8 0
11 0
7 0
7 3 9 0
2 0
12 0
7 0
7 12 0
7 0
3 0
12 0
3 0
12 3 0
12 7 0
7 3 12 0
7 3 12 9 0
3 9 0
3 0
3 12 9 0
12 0
12 3 0
3 9 0
11 0
11 0
7 3 12 9 0
11 0
12 0
7 3 0
7 3 12 0
7 0
7 0
2 0
3 0
7 3 9 0
12 7 0
7 12 0
7 0
2 8 0
12 0
7 0
3 0
12 0
3 0
7 3 12 0
12 3 0
12 7 0
7 3 12 9 0
7 0
3 12 9 0
3 0
7 0
12 0
7 12 0
7 0
12 0
3 9 0
12 0
7 3 0
7 3 9 0
7 3 9 0
7 0
7 0
7 3 12 0
7 3 0
12 0
3 0
3 9 0
7 12 0
3 0
7 0
7 3 12 9 0
12 0
3 12 9 0
12 7 0
12 3 0
12 0
3 9 0
3 0
7 0
12 0
7 3 9 0
12 0
12 7 0
3 12 9 0
12 3 0
3 0
7 0
7 3 12 9 0
7 3 12 0
7 3 0
7 12 0
12 0
7 0
12 3 0
3 9 0
12 0
7 0
3 0
12 0
7 3 12 9 0
7 0
12 7 0
7 3 0
3 12 9 0
7 3 9 0
7 0
7 12 0
12 0
7 3 12 0
3 0
12 0
7 0
3 0
-9 3 0
3 9 1 0
3 9 -1 0
3 0
10 0
10 0
2 -16 -8 0
2 8 1 0
16 1 0
2 1 16 0
2 1 16 8 0
2 8 -1 0
-1 2 16 8 0
-1 2 16 0
16 -1 0
16 0
2 0
1 0
-8 2 0
2 8 1 0
2 8 -1 0
2 0
2 -13 -8 0
13 0
2 8 0
2 0
13 0
13 0
13 0
2 8 0
2 0
2 0
13 0
2 8 0
13 0
2 8 0
2 0
13 0
13 0
13 0
2 0
-9 3 0
3 9 1 0
3 9 -1 0
3 0
1 0
13 4 -1 0
4 -1 0
13 -1 0
-1 4 13 0
4 -1 0
13 -1 0
13 4 0
13 0
13 0
4 13 0
4 0
4 0
1 13 0
-1 13 0
13 0
-8 0
2 0
13 0
-8 0
2 0
13 0
-8 2 0
2 8 1 0
2 8 -1 0
2 0
4 1 0
4 -1 0
4 0
7 0
7 0
7 0
7 0
5 14 6 0
6 15 0
5 0
6 0
6 15 5 0
5 14 0
6 0
6 15 0
5 14 6 0
6 15 5 0
5 14 0
5 0
6 0
5 0
3 0
12 0
7 0
12 7 0
3 12 9 0
7 0
7 3 12 0
12 0
7 12 0
7 3 9 0
3 9 0
3 0
3 0
12 3 0
7 0
7 3 0
12 0
7 3 12 9 0
12 0
7 0
7 3 0
12 7 0
7 0
12 0
7 12 0
3 9 0
3 0
12 3 0
7 0
12 0
7 3 12 0
7 3 9 0
12 0
7 3 12 9 0
7 0
3 0
3 12 9 0
7 3 12 9 0
12 3 0
7 3 9 0
3 0
7 0
7 3 0
12 0
3 12 9 0
7 0
12 7 0
3 9 0
7 0
12 0
7 12 0
12 0
3 0
7 3 12 0
7 3 9 0
7 12 0
7 3 0
12 0
7 3 12 9 0
12 0
3 0
7 0
12 3 0
7 3 12 0
3 9 0
12 7 0
3 0
12 0
7 0
3 12 9 0
7 0
3 0
7 0
12 0
1 0
16 0
16 0
16 0
16 0
16 0
16 0
16 0
16 0
16 0
10 0
10 0
10 0
10 0
10 -1 0
10 0
10 0
10 0
10 0
10 0
1 0
1 0
4 0
4 0
4 0
4 0
4 0
4 0
4 0
4 0
4 0
7 0
7 0
7 0
7 0
16 1 0
16 -1 0
16 0
5 14 0
5 14 6 0
5 0
6 15 0
6 0
6 15 5 0
5 0
6 0
14 5 6 0
15 5 6 0
5 14 0
6 15 0
14 5 6 0
15 5 6 0
5 14 0
6 15 0
4 0
4 0
10 4 0
4 0
10 0
4 0
4 0
10 4 0
4 0
10 0
1 0
1 0
1 0
13 -1 0
4 -1 0
4 -1 0
-1 4 13 0
13 -1 0
13 4 -1 0
13 0
4 0
13 4 0
13 0
4 0
4 13 0
1 0
7 0
5 14 6 0
6 15 5 0
5 14 0
13 0
13 0
13 0
6 15 0
-8 2 0
13 0
13 0
6 15 5 0
-8 2 0
13 0
5 14 0
13 0
13 0
13 0
6 15 0
13 0
5 14 6 0
13 0
13 0
13 0
5 0
6 0
-8 2 0
13 0
13 0
1 4 0
-1 4 0
4 0
16 1 0
16 -1 0
16 0
13 1 0
13 -1 0
13 0
1 0
16 -1 0
16 0
10 1 0
10 -1 0
10 0
5 0
6 15 5 0
5 14 0
5 14 6 0
6 15 0
6 0
5 14 0
5 0
6 0
6 15 5 0
6 15 0
5 14 6 0
6 0
6 15 5 0
5 14 0
5 0
5 14 6 0
6 15 0
5 14 6 0
5 0
6 0
6 15 5 0
5 14 0
6 15 0
1 0
4 0
4 0
4 0
4 0
4 0
4 0
4 0
4 0
3 -9 0
3 0
3 9 0
3 9 0
3 0
3 9 0
3 0
3 9 0
3 0
3 0
4 1 0
4 -1 0
4 0
10 0
10 0
10 1 0
10 -1 0
10 0
13 0
13 0
13 0
13 0
13 0
13 0
2 0
3 0
3 9 0
2 0
3 0
2 8 0
2 0
2 8 0
3 9 0
3 0
3 9 0
2 8 0
3 0
2 0
3 0
2 8 0
3 9 0
2 0
3 0
2 0
5 14 0
5 0
6 15 0
5 14 6 0
6 15 5 0
6 0
5 0
6 0
10 0
10 0
10 0
10 0
10 0
10 0
10 0
10 0
10 0
10 0
10 0
10 0
10 0
10 0
10 0
10 0
10 0
10 0
4 1 0
4 -1 0
4 0
3 -9 0
3 0
3 9 0
3 9 1 0
3 9 0
3 0
3 9 -1 0
3 0
1 10 0
-1 10 0
10 0
13 1 0
13 -1 0
13 0
13 1 0
13 -1 0
13 0
-8 2 0
2 8 1 0
2 8 -1 0
2 0
7 4 0
7 0
4 0
7 0
4 7 0
4 0
4 0
7 0
7 4 0
7 0
4 0
4 7 0
7 0
4 0
4 0
4 7 0
7 0
7 4 0
7 4 0
4 0
4 7 0
7 0
4 0
7 0
7 0
4 0
2 -8 0
2 8 1 0
2 8 -1 0
2 0
2 0
3 0
2 8 3 0
3 9 2 0
2 8 0
3 0
3 9 0
2 0
3 9 0
2 8 3 0
3 9 2 0
2 0
2 8 0
3 0
3 0
2 8 0
2 0
3 9 0
3 9 2 0
2 8 3 0
2 8 0
3 9 2 0
3 9 0
2 0
3 0
2 8 3 0
3 0
2 8 3 0
2 0
2 8 0
3 9 2 0
3 9 0
3 0
2 0
1 10 0
-1 10 0
10 0
10 0
10 0
-8 2 0
2 8 1 0
2 8 -1 0
2 0
-14 -15 6 0
-14 5 -15 0
-6 -14 5 0
-5 -15 6 0
6 15 1 0
5 14 1 0
1 14 5 6 0
15 1 5 6 0
6 15 -1 0
5 14 -1 0
-1 15 5 6 0
-1 14 5 6 0
5 0
6 0
5 0
12 0
7 3 12 9 0
12 3 0
7 12 0
5 14 0
3 9 0
12 0
12 7 0
3 0
3 0
12 0
7 0
7 0
7 0
7 3 0
7 3 12 0
7 3 9 0
3 12 9 0
5 0
12 0
7 3 12 9 0
12 3 0
7 12 0
5 14 0
3 9 0
12 0
12 7 0
3 0
3 0
12 0
7 0
7 0
7 0
7 3 0
7 3 12 0
7 3 9 0
3 12 9 0
1 0
13 0
13 0
13 0
13 0
10 1 0
-1 10 0
10 -1 0
10 0
10 0
3 0
2 0
2 0
3 0
3 9 0
2 8 0
3 9 2 0
2 8 3 0
3 9 2 0
2 8 0
3 9 0
3 0
2 8 3 0
2 0
3 9 2 0
3 0
2 0
2 8 3 0
2 8 0
3 9 0
3 9 2 0
2 8 0
3 9 0
3 0
2 8 3 0
2 0
3 9 0
2 8 3 0
2 8 0
2 0
3 9 2 0
3 0
2 0
3 0
7 1 0
7 -1 0
7 0
1 13 0
-1 13 0
13 0
4 0
4 0
4 0
4 1 0
4 -1 0
4 0
16 1 0
16 -1 0
16 0
4 0
4 0
4 0
4 0
4 0
4 0
4 0
4 0
4 0
7 1 0
7 -1 0
7 0
4 0
4 0
4 0
4 0
4 0
4 0
4 0
4 0
4 0
12 0
7 0
3 0
7 3 9 0
7 3 0
12 0
7 3 12 9 0
7 3 12 0
7 12 0
7 0
12 7 0
7 0
3 12 9 0
12 0
7 0
3 0
12 0
12 3 0
3 0
3 9 0
7 3 9 0
7 3 12 0
7 3 12 9 0
12 7 0
3 0
12 0
12 0
12 3 0
7 3 0
7 0
7 0
3 12 9 0
7 0
12 0
3 0
3 9 0
7 12 0
12 3 0
7 0
12 0
7 12 0
12 0
7 3 0
7 3 9 0
3 12 9 0
12 0
7 3 12 9 0
3 0
12 7 0
3 9 0
7 3 12 0
7 0
3 0
7 0
7 3 12 0
12 3 0
12 0
7 3 12 9 0
7 0
7 3 9 0
12 0
3 12 9 0
3 0
12 7 0
7 0
7 3 0
3 0
7 0
12 0
7 12 0
3 9 0
12 0
3 0
7 0
7 10 0
7 0
10 7 0
10 0
10 0
7 0
7 0
10 7 0
7 0
7 10 0
10 0
10 0
10 7 0
7 10 0
10 0
7 0
10 0
7 0
7 0
7 10 0
10 7 0
10 0
10 0
7 0
10 0
7 0
4 0
4 0
2 0
3 0
3 9 0
2 8 0
2 8 3 0
3 9 2 0
2 0
3 0
2 8 3 0
2 0
3 0
3 9 2 0
2 8 0
3 9 0
3 9 0
2 8 0
2 8 3 0
2 0
3 9 2 0
3 0
2 0
3 9 0
3 9 2 0
2 8 3 0
2 8 0
3 0
3 0
2 8 0
2 0
3 9 0
2 0
3 0
-8 2 0
2 8 1 0
2 8 -1 0
2 0
2 0
3 0
3 9 2 0
2 8 0
3 9 0
2 0
3 0
2 8 3 0
3 9 0
2 8 3 0
3 9 2 0
2 0
2 8 0
3 0
3 9 2 0
2 0
3 9 0
2 8 0
2 8 3 0
3 0
2 8 0
2 0
3 9 0
3 0
2 8 3 0
3 9 2 0
2 0
3 9 2 0
3 0
3 9 0
2 8 0
2 8 3 0
2 0
3 0
10 0
10 0
2 0
3 0
3 0
2 0
2 8 3 0
3 9 0
2 8 0
3 9 2 0
2 0
3 0
3 9 2 0
3 9 0
2 8 0
2 8 3 0
2 0
2 8 3 0
3 9 0
3 0
2 8 0
3 9 2 0
3 0
2 8 3 0
3 9 0
2 8 0
3 9 2 0
2 0
3 9 0
3 0
2 0
2 8 0
2 0
3 0
10 7 1 0
7 1 0
7 1 10 0
10 1 0
7 -1 0
10 -1 0
10 7 -1 0
-1 7 10 0
7 0
10 0
4 1 0
4 -1 0
4 0
2 -16 -8 0
2 8 1 0
16 1 0
2 1 16 8 0
2 1 16 0
16 -1 0
2 8 -1 0
-1 2 16 0
-1 2 16 8 0
16 0
2 0
4 1 0
4 -1 0
4 0
4 1 0
4 -1 0
4 0
10 0
4 1 0
4 -1 0
4 0
2 0
3 0
3 9 0
3 9 2 0
2 8 3 0
2 0
3 0
2 8 0
3 9 2 0
2 0
2 8 3 0
3 9 0
2 8 0
3 0
2 8 0
2 0
3 9 2 0
3 0
3 9 0
2 8 3 0
2 0
2 8 0
3 0
3 9 0
2 0
3 0
3 1 16 9 0
3 1 16 0
16 1 0
3 9 1 0
16 -1 0
3 -1 0
16 0
3 0
10 0
10 0
10 0
10 0
16 0
16 0
16 0
1 0
1 0
-8 0
2 0
13 0
13 0
5 14 0
6 15 0
16 0
14 5 6 0
15 5 6 0
5 14 0
6 15 0
16 0
14 5 6 0
15 5 6 0
10 0
10 0
10 1 0
10 -1 0
10 0
4 0
13 0
13 0
4 0
13 0
4 0
1 0
1 0
4 0
4 0
10 0
10 0
5 14 0
5 14 6 0
6 15 5 0
6 15 0
1 0
1 0
4 0
3 0
2 0
11 0
11 3 0
4 0
4 2 0
2 8 0
3 9 0
11 0
3 0
3 9 11 0
4 0
2 8 4 0
2 0
11 0
2 8 4 0
3 9 0
2 0
11 0
11 3 0
4 0
3 9 11 0
4 2 0
3 0
2 8 0
4 0
11 0
4 0
2 0
3 0
3 9 0
11 0
3 9 11 0
11 0
2 8 4 0
2 8 0
11 3 0
4 2 0
4 0
4 0
3 9 0
2 8 0
3 9 11 0
4 0
11 0
4 2 0
11 0
2 0
3 0
11 3 0
2 8 4 0
2 8 0
2 8 0
13 0
13 0
2 -8 0
2 8 1 0
2 8 -1 0
2 0
-8 2 0
2 8 1 0
2 8 -1 0
2 0
3 -9 0
3 0
3 9 0
3 9 0
3 0
3 0
3 9 0
3 0
3 9 0
3 0
16 0
16 0
16 0
16 0
16 0
16 0
16 0
16 0
16 0
16 0
16 0
16 0
16 0
16 0
4 0
4 0
4 0
4 0
4 0
4 0
4 0
4 0
4 0
2 0
3 0
2 8 3 0
2 0
2 8 0
3 9 2 0
3 9 0
3 0
3 9 2 0
2 8 3 0
3 0
2 0
2 8 0
3 9 0
3 9 2 0
2 8 3 0
2 8 0
2 0
3 0
3 9 0
2 8 3 0
3 0
2 8 0
3 9 2 0
2 0
3 9 0
2 0
2 8 0
3 0
3 9 0
2 0
3 0
1 0
7 -1 0
7 0
1 0
7 1 0
7 -1 0
7 0
7 0
7 0
7 0
7 0
7 0
7 0
7 0
7 0
7 0
7 0
3 0
2 0
3 9 2 0
2 8 0
2 8 3 0
3 0
3 9 0
2 0
3 0
3 9 2 0
2 0
3 9 0
2 8 0
2 8 3 0
2 8 3 0
3 9 0
3 0
2 0
3 9 2 0
2 8 0
2 0
3 0
13 0
13 0
16 0
16 0
16 0
16 0
16 0
16 0
16 0
16 0
16 0
16 0
10 0
10 0
10 0
10 0
1 0
12 0
3 0
7 0
3 0
12 0
7 3 0
7 3 12 9 0
7 0
12 7 0
7 12 0
12 0
7 0
3 12 9 0
7 3 12 0
7 0
3 9 0
3 0
12 0
12 3 0
7 3 9 0
12 3 0
3 12 9 0
7 0
12 0
7 0
7 0
12 0
7 3 9 0
12 7 0
7 3 12 0
3 9 0
12 0
3 0
3 0
7 3 0
7 3 12 9 0
7 12 0
3 9 0
3 0
7 0
7 0
3 12 9 0
12 3 0
12 7 0
3 0
12 0
7 3 0
7 3 12 9 0
7 12 0
7 0
7 3 9 0
12 0
7 3 12 0
12 0
7 0
12 0
3 0
7 3 12 9 0
7 3 9 0
7 3 12 0
7 12 0
12 0
7 0
12 7 0
3 12 9 0
7 0
3 0
7 3 0
12 0
3 9 0
12 3 0
3 0
7 0
12 0
10 0
10 0
1 0
10 0
10 0
4 0
4 0
4 0
4 0
4 0
4 0
4 0
4 0
4 0
2 -8 0
2 8 1 0
2 8 -1 0
2 0
10 1 0
10 -1 0
10 0
4 2 0
4 0
11 0
11 0
4 0
2 0
3 0
11 3 0
2 8 0
3 9 11 0
3 9 0
2 4 8 0
3 9 11 0
11 0
11 3 0
3 0
11 0
3 9 0
4 0
4 2 0
2 0
4 0
2 4 8 0
2 8 0
11 0
2 0
3 0
4 0
3 0
2 0
2 8 0
11 0
4 0
4 0
4 2 0
11 3 0
3 9 0
3 9 11 0
3 9 0
2 8 0
2 4 8 0
3 0
11 0
2 0
3 0
2 0
11 0
2 0
4 0
3 0
10 0
10 0
10 0
10 0
10 -1 0
10 0
10 0
7 1 0
7 -1 0
7 0
6 15 5 0
6 0
5 0
5 14 6 0
5 14 0
6 15 0
6 15 5 0
5 14 0
6 15 0
5 0
5 14 6 0
6 0
5 0
6 0
5 14 6 0
6 15 0
6 15 5 0
5 14 0
6 15 5 0
5 14 6 0
5 0
6 0
6 15 0
5 14 0
7 0
7 0
7 0
7 0
7 0
7 0
7 0
7 0
7 0
7 1 0
7 -1 0
7 0
10 1 0
10 -1 0
10 0
1 4 0
-1 4 0
4 0
7 1 0
7 -1 0
7 0
1 0
3 0
2 0
3 9 2 0
2 8 3 0
2 8 0
2 0
3 9 0
3 0
2 8 3 0
3 9 2 0
2 0
3 9 0
2 8 0
3 0
2 8 0
3 9 0
2 0
3 0
2 8 3 0
3 9 2 0
2 8 3 0
3 9 0
3 0
3 9 2 0
2 0
2 8 0
3 9 0
3 0
2 8 0
2 0
3 0
2 0
1 0
1 0
16 -1 0
16 0
-8 2 0
2 8 1 0
2 8 -1 0
2 0
3 0
2 0
2 0
2 0
3 9 0
2 8 0
3 0
3 0
2 0
2 8 0
2 0
3 0
3 9 0
3 0
3 0
3 0
2 8 0
2 0
2 0
3 9 0
2 8 0
3 9 0
3 0
2 0
2 0
3 0
2 0
3 0
2 0
3 9 2 0
4 0
4 0
4 0
2 8 3 0
3 0
2 0
2 8 0
3 9 0
4 0
2 8 0
3 0
2 0
2 0
3 9 0
3 0
3 0
2 8 3 0
2 8 0
4 0
3 9 0
2 0
4 0
2 0
3 9 0
4 0
3 9 2 0
2 8 0
2 0
2 0
4 0
3 0
2 0
3 9 2 0
2 8 0
2 8 3 0
3 9 0
4 0
3 0
3 0
2 0
2 8 0
3 9 0
4 0
2 0
2 0
4 0
4 0
2 8 0
3 9 0
2 0
3 0
2 0
-6 -14 5 0
-5 -15 6 0
-14 5 -15 0
-14 -15 6 0
5 14 1 0
1 14 5 6 0
15 1 5 6 0
6 15 1 0
5 14 -1 0
-1 14 5 6 0
6 15 -1 0
-1 15 5 6 0
5 0
6 0
10 1 0
10 -1 0
10 0
4 0
4 0
4 0
4 0
4 0
4 0
4 0
4 0
4 0
5 14 6 0
6 15 0
6 15 5 0
5 14 0
5 14 6 0
6 15 0
6 15 5 0
5 14 0
-1 13 0
13 0
3 0
2 0
2 8 0
3 9 0
3 0
2 8 3 0
3 9 2 0
2 0
3 9 0
3 9 2 0
2 8 0
2 0
3 0
2 8 3 0
3 0
2 0
3 9 2 0
2 8 3 0
3 9 0
2 8 0
2 8 0
3 0
2 0
3 9 0
2 0
3 0
13 0
13 0
13 0
13 0
10 0
10 0
4 0
10 4 0
4 0
10 0
4 0
10 0
4 0
10 4 0
10 0
4 0
4 0
10 0
10 4 0
10 0
4 0
10 4 0
10 0
4 0
4 0
10 0
7 1 0
7 -1 0
7 0
13 0
13 0
13 0
13 0
2 8 1 0
2 -1 0
16 0
16 0
16 0
16 0
16 0
16 0
16 0
16 0
16 0
16 0
1 4 0
-1 4 0
4 0
1 0
1 0
10 0
10 0
10 1 0
10 -1 0
10 0
5 0
6 15 0
6 0
5 14 0
6 0
5 0
-8 2 0
2 8 1 0
2 8 -1 0
2 0
7 0
7 0
7 0
7 0
7 0
7 0
7 0
7 0
1 0
4 0
3 0
3 9 0
3 0
4 3 0
3 0
4 0
4 0
4 0
4 3 9 0
3 9 0
4 0
4 3 0
4 0
3 0
4 3 9 0
4 0
3 0
3 0
4 0
3 9 0
4 0
3 0
4 3 0
4 3 9 0
4 0
3 0
4 3 9 0
4 0
4 3 0
4 0
3 0
3 9 0
4 0
16 0
2 0
16 0
16 0
2 0
2 8 0
2 0
16 0
2 8 0
16 0
2 8 0
16 0
16 0
2 0
2 0
2 8 0
16 0
16 0
16 0
2 0
10 0
10 0
10 0
13 0
13 0
13 0
13 0
-8 2 0
2 8 1 0
2 8 -1 0
2 0
1 4 0
-1 4 0
4 0
10 0
10 0
-8 2 0
2 8 1 0
2 8 -1 0
2 0
1 0
2 0
3 0
2 0
3 9 0
2 0
2 0
2 0
2 8 0
3 0
3 0
3 9 0
2 8 0
2 0
3 0
2 0
3 0
2 0
2 0
2 0
2 8 0
2 0
3 0
3 9 0
2 0
3 0
2 0
2 0
2 8 0
2 0
3 9 0
3 0
2 0
1 0
2 8 -1 0
13 2 -1 0
13 -1 0
-1 2 8 13 0
2 8 0
13 2 0
13 0
2 8 13 0
10 0
10 0
10 0
10 0
10 0
10 0
10 0
10 0
10 0
10 0
10 0
10 0
10 0
10 0
10 0
10 0
1 0
4 0
4 0
4 0
4 0
4 0
4 0
4 0
4 0
4 0
10 0
10 0
10 0
10 0
10 0
10 0
10 0
10 0
10 0
10 0
10 0
10 0
10 0
10 0
10 0
10 0
10 0
10 0
2 -7 -13 -8 0
7 1 13 0
7 1 0
13 7 1 0
2 1 8 13 0
2 7 1 13 0
2 7 1 0
13 1 0
13 2 1 0
2 7 1 8 0
2 7 1 8 13 0
2 8 1 0
-1 2 7 8 13 0
-1 2 7 8 0
13 -1 0
-1 2 8 13 0
-1 2 7 13 0
7 -1 0
13 2 -1 0
13 7 -1 0
-1 2 7 0
-1 7 13 0
2 8 -1 0
13 0
2 0
7 0
1 4 0
-1 4 0
4 0
1 4 0
-1 4 0
4 0
1 0
6 15 -1 0
-1 14 5 6 0
-1 15 5 6 0
5 14 -1 0
6 15 5 0
6 15 0
5 14 0
5 14 6 0
-5 -15 6 0
-6 -14 5 0
-14 5 -15 0
-14 -15 6 0
15 1 5 6 0
5 14 1 0
6 15 1 0
1 14 5 6 0
5 14 -1 0
6 15 -1 0
-1 15 5 6 0
-1 14 5 6 0
5 0
6 0
16 0
16 0
16 0
16 0
16 0
16 0
16 0
16 0
16 0
16 0
16 0
16 0
16 0
1 0
13 4 -1 0
13 -1 0
-1 4 13 0
4 -1 0
13 -1 0
4 -1 0
4 0
4 13 0
4 0
13 0
13 0
13 4 0
2 0
3 0
3 0
2 0
2 8 0
2 0
3 0
3 9 0
3 0
2 0
2 8 0
3 9 0
2 0
3 0
2 0
3 0
2 0
3 9 0
2 8 0
3 0
2 0
3 9 0
2 8 0
3 0
2 0
3 0
10 0
10 0
6 15 5 0
6 0
5 14 0
5 14 6 0
6 15 0
5 0
5 0
6 0
16 0
16 0
16 0
7 0
7 0
7 0
7 0
7 0
7 0
7 0
7 0
7 0
2 0
3 0
2 8 0
3 9 2 0
3 0
2 8 3 0
3 9 0
2 0
2 8 3 0
3 0
3 9 0
3 9 2 0
2 8 0
2 0
2 8 0
3 9 0
3 0
3 9 2 0
2 8 3 0
2 0
2 0
3 9 0
2 8 3 0
3 0
3 9 2 0
2 8 0
2 0
2 8 0
3 9 0
3 0
2 0
3 0
1 -8 0
1 2 0
1 13 0
-1 -8 0
-1 2 0
-1 13 0
-8 0
2 0
13 0
1 13 0
-1 13 0
13 0
10 0
10 0
5 14 0
5 14 6 0
6 15 5 0
6 15 0
6 15 0
6 0
5 0
5 14 0
7 1 13 0
13 1 0
13 7 1 0
7 1 0
-1 7 13 0
13 -1 0
13 7 -1 0
7 -1 0
7 0
13 0
-8 2 0
2 8 1 0
2 8 -1 0
2 0
1 0
10 1 0
10 -1 0
10 0
1 0
5 0
4 0
16 0
2 0
3 0
4 0
2 0
16 0
2 0
2 0
2 0
16 0
5 0
4 0
4 0
4 0
3 0
3 9 0
2 8 0
2 0
4 0
14 5 0
16 0
16 0
16 0
5 0
4 0
5 0
4 0
14 5 0
2 8 0
4 0
16 0
3 9 0
4 0
16 0
5 0
5 0
2 0
3 0
4 0
16 0
2 0
2 0
2 0
5 0
4 0
16 0
16 0
2 0
4 0
4 0
16 0
5 0
4 0
5 0
5 0
4 0
3 0
14 5 0
4 0
16 0
3 9 0
2 0
4 0
2 8 0
2 0
4 0
2 0
16 0
16 0
2 0
16 0
2 0
4 0
2 0
16 0
2 8 0
4 0
3 0
5 0
4 0
4 0
16 0
2 0
5 0
2 0
4 0
3 9 0
5 0
2 0
16 0
14 5 0
16 0
4 0
16 0
2 0
10 1 0
10 -1 0
10 0
5 14 0
5 14 6 0
6 15 0
6 15 5 0
3 9 0
3 9 0
2 0
12 0
3 0
7 0
5 0
7 3 9 0
7 3 12 0
7 3 0
7 0
5 0
7 3 12 9 0
7 12 0
5 0
12 0
2 0
3 0
3 9 0
7 0
7 0
2 14 5 0
12 7 0
12 3 0
3 0
12 0
14 5 0
2 8 0
2 8 5 0
2 0
5 0
3 12 9 0
12 0
2 0
12 0
7 0
2 14 5 0
3 12 9 0
7 3 0
5 0
3 0
7 0
12 0
14 5 0
2 0
7 3 12 9 0
12 0
7 3 9 0
12 7 0
12 3 0
2 8 0
7 12 0
7 0
5 0
5 0
2 8 5 0
3 0
7 3 12 0
2 0
3 9 0
2 0
2 0
12 0
12 0
7 0
12 7 0
3 0
12 0
2 0
7 3 12 9 0
7 3 12 0
5 0
5 0
3 12 9 0
2 8 0
3 9 0
12 3 0
2 0
5 0
7 12 0
7 0
2 8 5 0
7 0
7 3 9 0
3 0
14 5 0
2 14 5 0
7 3 0
7 0
14 5 0
12 3 0
12 0
2 8 5 0
7 12 0
7 3 0
2 0
7 3 9 0
12 0
7 3 12 0
3 0
2 0
2 14 5 0
7 0
12 7 0
12 0
3 0
3 12 9 0
3 9 0
2 0
5 0
7 3 12 9 0
5 0
5 0
2 8 0
7 0
3 0
12 0
5 0
2 0
7 0
-14 1 0
-5 -14 0
-5 6 -15 0
15 -5 1 6 0
15 -5 1 13 6 0
15 -5 1 6 0
-1 -14 15 6 0
-1 -14 15 13 6 0
-1 -14 15 6 0
-1 15 -5 6 0
-1 15 -5 13 6 0
-1 15 -5 6 0
-14 15 6 0
6 15 13 -14 0
-14 15 6 0
6 -5 0
6 13 -5 0
6 -5 0
1 16 10 0
10 1 0
10 16 1 0
16 1 0
16 -1 0
10 -1 0
10 16 -1 0
-1 16 10 0
16 0
10 0
4 1 0
4 -1 0
4 0
3 0
7 0
12 0
7 3 0
12 0
7 0
7 3 12 0
7 0
7 3 12 9 0
3 0
7 12 0
12 0
3 12 9 0
7 0
12 0
3 9 0
7 3 9 0
12 3 0
12 7 0
3 0
7 0
12 0
3 9 0
7 12 0
7 0
7 3 12 0
12 0
7 0
3 0
3 12 9 0
7 3 12 9 0
12 3 0
7 3 9 0
12 0
7 3 0
12 7 0
3 0
7 0
7 12 0
7 3 12 9 0
7 0
7 3 0
3 9 0
3 0
3 12 9 0
12 0
12 0
12 7 0
7 3 9 0
12 0
12 3 0
7 3 12 0
7 0
3 0
12 0
3 12 9 0
7 3 12 0
3 0
7 0
12 3 0
12 0
12 0
3 9 0
7 0
7 3 0
7 3 12 9 0
3 0
12 7 0
7 3 9 0
7 0
7 12 0
12 0
7 0
3 0
4 0
4 0
3 0
4 3 0
4 3 9 0
3 9 0
3 0
3 9 0
4 3 0
4 0
4 3 9 0
4 0
3 0
3 9 0
4 3 0
4 0
4 3 9 0
4 0
2 0
3 0
3 9 0
3 0
2 8 3 0
2 8 0
3 9 2 0
2 0
3 0
3 9 2 0
2 0
3 9 0
2 8 0
2 8 3 0
3 0
2 8 0
3 9 0
2 8 3 0
3 9 2 0
2 0
2 8 3 0
3 9 2 0
2 0
3 0
3 9 0
2 8 0
2 8 0
3 9 2 0
2 8 3 0
2 0
3 9 0
3 0
3 0
2 0
1 0
10 1 0
10 -1 0
10 0
1 0
4 0
7 0
4 0
7 0
10 0
10 0
7 0
10 0
10 0
4 0
1 0
4 0
7 0
10 0
10 0
7 0
4 0
1 0
7 0
7 0
10 0
4 0
4 0
10 0
10 0
10 0
7 0
4 0
7 1 0
7 -1 0
7 0
4 0
10 0
4 0
10 4 0
4 0
10 0
4 0
10 0
4 0
10 4 0
4 0
10 0
16 0
16 0
16 0
16 0
16 0
16 0
16 0
16 0
16 0
16 0
4 0
4 0
4 0
4 0
4 0
4 0
4 0
4 0
4 0
1 0
16 -1 0
16 0
10 0
10 7 0
7 0
10 0
7 10 0
7 0
10 0
7 0
10 0
7 10 0
7 0
10 7 0
7 10 0
10 7 0
7 0
10 0
10 0
7 0
7 0
10 0
10 7 0
10 0
7 0
7 10 0
7 0
7 10 0
10 7 0
10 0
10 0
7 0
7 0
7 0
10 7 0
7 10 0
10 0
10 0
10 0
7 0
3 9 0
3 9 0
2 0
7 0
3 0
12 0
11 0
7 3 9 0
12 0
3 0
11 0
12 3 0
7 0
2 0
3 12 9 0
2 8 11 0
7 0
11 0
7 12 0
3 0
7 3 12 0
2 0
12 7 0
2 8 0
11 2 0
7 3 12 9 0
7 3 0
12 0
7 0
12 0
3 9 0
11 0
7 0
7 0
7 0
3 0
3 0
7 3 9 0
7 3 0
12 3 0
2 8 0
7 3 12 0
2 0
3 12 9 0
3 9 0
11 0
11 2 0
12 0
11 0
7 3 12 9 0
12 0
7 12 0
12 7 0
12 0
11 0
2 0
2 8 11 0
3 9 0
12 0
7 3 12 0
3 0
2 0
7 3 9 0
12 0
11 0
12 0
7 3 0
7 12 0
7 0
7 3 12 9 0
7 0
11 0
2 8 11 0
11 0
3 12 9 0
12 7 0
2 8 0
3 0
11 2 0
2 0
12 3 0
7 0
2 0
7 0
7 3 0
3 9 0
7 0
11 0
12 0
7 3 9 0
12 0
7 0
2 0
3 0
2 8 11 0
11 0
11 2 0
12 7 0
2 8 0
7 3 12 9 0
7 12 0
12 3 0
11 0
3 12 9 0
3 0
12 0
7 3 12 0
6 0
6 15 5 0
5 0
5 14 6 0
6 15 0
5 14 0
13 0
13 0
13 0
13 0
13 0
13 0
13 0
13 0
13 0
1 0
1 0
13 0
13 0
10 0
4 0
10 0
4 0
10 0
10 0
4 0
10 0
4 0
10 0
10 0
4 0
10 0
10 0
10 0
4 0
4 0
10 0
10 0
4 0
10 0
4 0
4 0
10 0
10 1 0
10 4 1 0
4 1 0
4 -1 0
10 4 -1 0
10 -1 0
4 0
10 0
1 4 0
-1 4 0
4 0
1 -8 0
1 2 0
1 13 0
-1 -8 0
-1 2 0
-1 13 0
-8 0
2 0
13 0
1 4 0
-1 4 0
4 0
2 0
3 0
7 0
12 0
11 0
7 3 0
12 3 0
11 0
3 12 9 0
7 12 0
11 2 0
12 0
12 0
12 7 0
11 0
11 0
2 0
2 8 0
7 3 12 0
7 3 12 9 0
7 0
2 8 11 0
3 9 0
7 0
7 0
3 0
7 3 9 0
2 0
3 0
12 0
2 0
12 0
3 12 9 0
12 0
11 0
7 3 12 9 0
2 0
7 12 0
3 0
7 3 9 0
7 3 0
2 8 0
12 0
11 0
7 0
7 0
2 8 11 0
3 9 0
12 3 0
11 2 0
7 0
3 0
12 7 0
7 3 12 0
11 0
11 0
7 0
7 0
12 0
3 12 9 0
2 8 11 0
7 12 0
11 0
7 3 9 0
12 0
3 0
3 0
7 0
12 0
7 3 12 0
11 2 0
12 7 0
2 0
7 3 0
2 8 0
7 3 12 9 0
2 0
11 0
12 3 0
3 9 0
7 0
7 0
12 0
3 0
12 0
12 0
7 3 0
7 0
12 7 0
2 0
3 0
11 2 0
7 3 9 0
3 12 9 0
7 3 12 9 0
7 3 12 0
11 0
11 0
12 3 0
2 8 11 0
11 0
2 0
2 8 0
3 9 0
7 12 0
10 0
10 0
1 0
10 0
10 0
10 0
10 0
1 0
10 0
10 0
10 0
10 0
10 0
10 0
10 0
10 0
10 0
10 0
10 0
10 0
10 0
10 0
10 0
10 0
10 0
10 0
1 0
10 0
10 0
10 0
10 0
10 0
10 0
1 0
-1 4 0
-1 13 0
4 0
13 0
2 -8 0
2 8 1 0
2 8 -1 0
2 0
13 0
10 7 1 0
10 1 0
7 1 10 0
7 1 0
-1 7 10 0
10 -1 0
10 7 -1 0
7 -1 0
10 0
7 0
1 4 0
-1 4 0
4 0
1 10 0
-1 10 0
10 0
10 0
10 0
10 0
10 0
10 0
10 0
10 0
10 0
10 0
1 0
2 -13 -8 0
2 0
13 0
13 0
2 8 0
2 0
13 0
13 0
2 8 0
2 0
13 0
2 8 0
13 0
13 0
2 0
13 0
2 8 0
13 0
2 0
10 0
10 0
2 -13 -4 -8 0
2 4 1 8 13 0
13 1 0
2 4 1 13 0
4 1 0
2 1 8 13 0
2 4 1 8 0
13 2 1 0
13 4 1 0
2 8 1 0
4 2 1 0
13 2 -1 0
2 8 -1 0
13 -1 0
4 2 -1 0
4 -1 0
-1 2 4 8 13 0
-1 2 4 8 0
-1 2 8 13 0
13 4 -1 0
-1 2 4 13 0
13 0
2 0
4 0
4 0
4 0
7 1 0
7 -1 0
7 0
1 4 0
-1 4 0
4 0
7 1 0
7 -1 0
7 0
3 -9 -2 0
2 -9 -8 0
3 -9 -8 0
-3 2 -8 0
3 0
2 0
3 9 0
3 9 2 0
2 8 3 0
2 8 0
3 0
3 9 2 0
2 8 3 0
2 8 0
3 9 0
2 0
2 8 0
2 0
3 0
2 8 3 0
3 9 2 0
3 9 0
2 8 0
3 0
3 9 2 0
2 0
3 9 0
2 8 3 0
2 8 0
3 0
3 9 0
2 0
3 0
7 2 0
12 3 0
2 0
3 0
7 3 0
3 2 0
2 0
3 0
12 2 0
11 2 0
2 0
11 3 0
3 0
2 0
2 8 0
3 9 0
3 0
2 0
3 0
3 9 0
2 0
2 8 0
2 0
3 0
2 8 0
3 9 0
3 0
3 9 0
2 8 0
2 0
3 0
2 0
13 0
13 0
13 0
13 0
13 0
13 0
1 4 0
-1 4 0
4 0
13 0
13 0
16 0
16 0
16 0
16 0
16 0
16 0
16 0
16 0
16 0
16 0
16 0
16 0
16 0
16 0
16 0
16 0
16 0
16 0
16 0
16 0
16 0
16 0
16 0
16 0
16 0
16 0
16 0
16 0
16 0
16 0
16 0
16 0
10 0
10 0
10 0
10 0
10 0
10 0
10 0
10 0
10 0
10 0
7 0
7 0
7 0
7 0
7 0
10 7 0
7 10 0
10 0
7 0
10 0
7 0
10 0
7 0
10 7 0
10 0
7 10 0
10 7 0
7 10 0
10 0
7 0
10 0
7 0
7 10 0
10 0
10 7 0
10 0
7 0
7 0
10 0
7 0
1 10 0
-1 10 0
10 0
-8 2 0
2 8 1 0
2 8 -1 0
2 0
1 0
1 0
1 0
1 0
1 0
1 0
1 0
1 0
-8 2 0
2 8 1 0
2 8 -1 0
2 0
4 0
4 0
10 1 0
10 -1 0
10 0
1 0
10 0
1 0
10 0
10 0
1 0
10 0
10 0
7 1 0
7 -1 0
7 0
10 0
10 0
10 0
10 0
16 1 0
16 -1 0
16 0
16 1 0
16 -1 0
16 0
-8 0
2 0
13 0
-8 0
2 0
13 0
4 0
4 0
4 0
4 0
1 0
7 0
1 0
4 0
1 0
7 0
7 0
7 0
1 0
7 4 0
4 0
4 0
7 0
7 0
4 0
4 7 0
7 0
4 0
4 0
1 0
4 0
4 0
4 7 0
1 0
7 0
7 0
7 0
4 0
4 0
4 0
4 0
4 0
7 0
1 0
4 0
1 0
10 0
7 4 0
7 0
4 0
7 0
4 0
7 0
10 0
10 0
10 0
10 0
10 0
10 0
1 0
16 0
16 0
4 0
4 0
2 0
3 0
2 8 0
3 9 0
2 8 3 0
3 9 2 0
2 0
3 0
3 0
2 0
3 9 0
3 9 2 0
2 8 0
2 8 3 0
3 0
2 0
2 8 3 0
2 8 0
3 9 0
3 9 2 0
3 9 2 0
2 8 3 0
3 0
3 9 0
2 8 0
2 0
2 8 0
3 9 0
2 0
3 0
3 0
2 0
-14 -15 6 0
-6 -14 5 0
-5 -15 6 0
-14 5 -15 0
1 14 5 6 0
5 14 1 0
15 1 5 6 0
6 15 1 0
-1 14 5 6 0
6 15 -1 0
-1 15 5 6 0
5 14 -1 0
5 0
6 0
16 1 0
16 -1 0
16 0
1 0
16 0
10 1 0
10 -1 0
10 0
4 1 0
4 -1 0
4 0
1 0
13 -1 0
13 -1 0
13 0
13 0
-8 2 0
2 8 1 0
2 8 -1 0
2 0
3 9 0
3 9 0
6 15 0
5 14 0
6 15 5 0
5 14 6 0
1 0
3 0
2 0
2 8 0
2 0
3 9 0
3 0
2 0
3 0
2 8 0
3 9 0
2 0
2 8 0
3 9 0
3 0
2 8 0
3 9 0
3 0
2 0
3 0
2 0
1 0
-1 10 0
10 0
1 0
3 -9 0
3 9 0
3 0
3 9 1 0
3 9 0
3 0
3 9 -1 0
3 0
-8 0
2 0
13 0
-8 0
2 0
13 0
10 0
10 0
4 1 0
4 -1 0
4 0
4 1 0
4 -1 0
4 0
-8 2 0
2 8 1 0
2 8 -1 0
2 0
1 10 0
-1 10 0
10 0
10 0
10 0
2 -16 -8 0
2 1 16 0
2 8 1 0
2 1 16 8 0
16 1 0
-1 2 16 0
-1 2 16 8 0
16 -1 0
2 8 -1 0
16 0
2 0
10 1 0
10 -1 0
10 0
16 1 0
16 -1 0
16 0
-8 2 0
2 8 1 0
2 8 -1 0
2 0
7 3 12 0
3 0
16 0
2 8 0
7 0
2 0
2 0
7 0
7 3 12 9 0
5 0
3 0
4 0
12 0
16 0
12 0
2 0
2 4 0
2 0
16 0
2 8 0
12 0
12 0
2 8 0
7 3 9 0
3 0
2 0
3 12 9 0
3 0
4 0
3 0
7 3 9 0
7 0
16 0
4 3 9 0
4 0
3 12 0
3 9 0
4 0
3 12 9 0
2 0
2 0
16 0
2 0
4 0
3 0
4 0
3 9 0
7 3 0
2 0
4 0
12 0
3 9 0
7 3 0
7 0
7 12 0
3 9 0
3 9 0
2 0
7 12 0
4 0
4 0
3 9 0
7 3 12 0
3 0
4 3 0
7 3 12 9 0
7 0
4 0
3 0
4 0
7 12 0
2 8 0
4 0
5 0
2 0
12 0
2 0
4 0
14 5 0
5 0
4 0
7 12 0
2 4 8 0
4 0
3 12 0
7 0
2 8 0
7 3 9 0
4 0
2 0
4 0
7 12 0
2 4 8 0
7 0
7 3 12 0
2 0
7 12 0
4 0
2 8 0
2 0
3 0
2 0
12 0
12 0
5 0
4 3 9 0
3 0
5 0
7 0
2 0
3 9 0
2 8 0
12 0
12 0
3 12 0
4 3 0
7 12 0
7 3 12 9 0
2 0
2 8 0
4 0
16 0
2 8 0
2 0
16 0
3 0
14 5 0
3 9 0
7 12 0
4 0
7 3 12 0
3 0
3 12 9 0
7 0
4 0
7 0
2 0
7 3 0
4 0
2 4 0
4 0
7 0
7 3 9 0
4 0
16 0
2 0
12 0
4 0
7 3 12 9 0
4 0
4 0
16 0
2 8 0
3 9 0
3 9 0
3 0
2 0
5 0
2 0
7 3 0
2 0
16 0
3 9 0
3 0
7 0
4 0
3 9 0
12 0
3 0
4 0
3 12 9 0
4 0
3 12 0
3 0
7 0
12 0
3 0
3 0
7 0
2 0
12 0
2 0
4 0
7 12 0
4 0
4 0
2 0
7 3 0
4 3 0
3 9 0
12 0
7 0
12 0
7 3 9 0
3 0
7 3 12 0
3 12 9 0
16 0
7 0
2 0
3 0
16 0
7 3 9 0
2 8 0
7 3 12 9 0
4 0
5 0
2 0
16 0
4 0
7 0
7 12 0
3 12 9 0
7 3 12 9 0
12 0
7 3 12 0
12 0
2 8 0
3 9 0
3 0
2 0
2 4 8 0
7 12 0
4 0
16 0
3 9 0
7 3 0
2 4 0
16 0
2 0
7 0
3 0
3 0
2 0
4 0
4 0
2 0
12 0
4 3 9 0
2 8 0
4 0
2 0
3 0
4 0
2 0
3 0
4 0
2 0
5 0
7 0
3 12 0
3 9 0
3 0
12 0
5 0
4 0
2 0
3 9 0
2 8 0
7 0
3 12 0
2 0
4 0
3 9 0
2 8 0
7 12 0
4 0
14 5 0
4 0
12 0
3 0
3 0
7 0
12 0
2 0
7 0
2 0
4 0
4 0
4 0
10 0
4 0
10 0
13 0
13 0
13 0
13 0
13 0
13 0
13 0
13 0
13 0
1 10 0
-1 10 0
10 0
13 0
13 0
13 0
13 0
13 0
13 0
13 0
13 0
13 0
1 0
4 0
4 0
4 0
4 0
4 0
4 0
4 0
4 0
4 0
2 8 0
2 8 0
1 0
1 4 0
-1 4 0
4 0
6 15 5 0
5 14 6 0
5 0
5 14 0
6 15 0
6 0
5 0
6 0
1 0
11 0
12 0
2 0
7 0
3 0
3 0
2 0
11 0
12 0
11 0
2 8 11 0
3 9 0
7 0
3 0
3 12 9 0
12 0
12 7 0
12 0
7 0
7 3 12 9 0
7 3 9 0
7 3 0
7 0
7 3 12 0
11 2 0
11 0
7 12 0
2 0
12 3 0
2 8 0
12 3 0
12 7 0
12 0
7 0
7 0
2 8 0
11 0
12 0
7 3 9 0
11 0
12 0
7 0
2 0
11 2 0
2 0
3 0
3 0
7 12 0
3 9 0
7 3 0
11 0
7 3 12 9 0
3 12 9 0
7 3 12 0
2 8 11 0
7 3 12 9 0
12 0
11 2 0
2 8 11 0
3 9 0
3 0
2 8 0
2 0
7 0
11 0
3 12 9 0
7 3 9 0
2 0
7 3 0
11 0
7 12 0
7 0
11 0
12 0
3 0
12 0
12 3 0
12 7 0
7 3 12 0
7 0
2 0
3 9 0
12 0
12 0
11 0
7 0
12 0
11 0
2 0
3 0
7 0
7 3 12 9 0
7 3 0
7 12 0
7 3 9 0
11 2 0
7 0
7 3 12 0
2 8 11 0
2 8 0
11 0
3 12 9 0
12 3 0
12 7 0
3 0
4 1 0
4 -1 0
4 0
10 0
10 0
10 0
10 0
1 4 0
-1 4 0
4 0
10 1 0
10 -1 0
10 0
2 -9 -8 0
3 -9 -8 0
3 -9 -2 0
-3 2 -8 0
2 8 3 0
2 8 0
3 0
3 9 0
3 9 2 0
2 0
3 9 2 0
2 8 3 0
2 0
2 8 0
3 9 0
3 0
3 9 2 0
2 0
3 9 0
3 0
2 8 0
2 8 3 0
3 0
3 9 0
2 8 3 0
3 9 2 0
2 8 0
2 0
3 0
2 8 0
2 0
3 9 0
3 0
2 0
2 -13 -8 0
13 1 0
2 1 8 13 0
13 2 1 0
2 8 1 0
13 -1 0
13 2 -1 0
-1 2 8 13 0
2 8 -1 0
13 0
2 0
1 0
16 -1 0
16 0
7 10 0
3 9 0
3 9 0
10 0
10 0
10 0
7 0
3 0
15 5 6 0
3 9 0
3 9 0
10 7 0
13 0
7 0
2 8 0
3 9 0
13 0
14 5 6 0
10 7 0
7 0
3 9 0
3 9 0
4 0
13 4 0
6 0
5 14 0
4 0
3 9 0
5 0
13 0
13 0
10 0
4 0
4 0
7 0
7 0
4 0
6 15 0
10 0
7 10 0
13 0
7 0
13 0
2 8 0
15 5 6 0
10 0
4 0
4 0
5 14 0
7 10 0
6 0
7 10 0
4 0
13 0
7 0
3 9 0
10 0
10 7 0
10 0
3 9 0
3 9 0
4 0
3 9 0
13 0
7 0
10 7 0
13 0
6 15 0
3 9 0
5 0
13 4 0
14 5 6 0
3 9 0
3 9 0
4 0
3 0
10 0
7 0
7 0
7 0
10 0
3 9 0
7 0
13 0
2 0
10 0
4 0
3 0
7 0
3 0
3 0
13 0
10 0
3 0
7 0
3 0
7 0
10 0
3 0
13 0
3 0
4 0
3 0
6 0
13 0
5 0
2 -8 0
2 8 1 0
2 8 -1 0
2 0
5 14 6 0
6 0
5 0
5 14 0
6 15 0
6 15 5 0
6 0
5 0
10 1 0
10 -1 0
10 0
3 -9 0
3 9 0
3 0
3 0
3 9 0
3 0
3 9 0
3 0
3 9 0
3 0
3 9 0
2 8 0
3 0
3 9 0
3 9 0
2 0
3 9 0
3 9 0
2 0
3 9 0
3 0
2 8 0
2 0
3 0
3 0
2 0
3 9 0
3 9 0
2 8 0
3 9 0
3 0
2 0
3 0
3 0
10 1 0
10 -1 0
10 0
7 0
7 0
7 0
7 0
7 0
7 0
7 0
7 0
7 0
7 0
13 4 0
4 0
13 0
4 0
13 0
13 0
4 0
13 0
4 0
13 4 0
13 4 0
13 0
4 0
4 0
13 0
13 0
4 0
4 0
13 4 0
13 0
13 0
4 0
1 4 0
-1 4 0
4 0
3 0
2 0
2 8 3 0
2 0
3 0
3 9 2 0
2 8 0
3 9 0
3 9 0
2 8 0
2 8 3 0
3 9 2 0
3 0
2 0
2 8 3 0
3 0
2 8 0
3 9 0
2 0
3 9 2 0
2 8 3 0
2 0
2 8 0
3 9 0
3 0
3 9 2 0
2 8 0
2 0
3 0
3 9 0
3 0
2 0
6 15 0
5 0
6 0
5 14 0
5 14 6 0
6 15 5 0
6 0
5 0
1 0
10 0
10 0
10 0
10 0
10 0
10 0
10 0
10 0
10 0
10 0
10 0
4 0
4 0
10 0
10 0
1 13 0
-1 13 0
13 0
16 1 0
16 -1 0
16 0
-14 5 -15 0
-6 -14 5 0
-5 -15 6 0
-14 -15 6 0
15 1 5 6 0
1 14 5 6 0
6 15 1 0
5 14 1 0
6 15 -1 0
5 14 -1 0
-1 14 5 6 0
-1 15 5 6 0
5 0
6 0
16 1 0
16 -1 0
16 0
6 0
5 0
5 14 0
7 0
5 14 6 0
6 15 5 0
6 15 0
7 0
15 7 5 6 0
7 5 0
7 14 5 6 0
6 15 5 0
6 15 0
5 14 0
5 14 7 0
7 0
6 15 7 0
5 14 6 0
7 6 0
15 7 5 6 0
7 5 0
7 14 5 6 0
6 15 5 0
6 15 0
5 14 0
5 14 7 0
7 0
6 15 7 0
5 14 6 0
7 6 0
4 1 0
4 -1 0
4 0
1 0
16 -1 0
16 0
1 0
2 0
3 0
3 9 0
4 0
2 0
3 0
3 0
2 0
3 9 2 0
4 0
2 8 0
3 9 0
2 8 0
4 0
2 8 3 0
2 4 8 0
2 4 0
2 0
3 9 0
4 0
2 8 0
2 8 3 0
3 0
2 8 0
2 0
2 0
4 0
2 4 0
4 0
3 0
3 9 0
2 4 8 0
3 9 2 0
2 0
3 0
3 9 0
2 8 0
2 8 3 0
2 0
3 9 2 0
2 0
2 4 0
2 4 8 0
2 8 0
4 0
3 0
2 0
4 0
4 0
2 8 0
3 9 0
3 9 0
2 0
3 0
3 0
2 0
1 0
10 0
10 0
10 0
10 0
16 0
16 0
16 1 0
16 0
16 0
16 -1 0
16 0
13 0
13 0
13 0
13 0
13 0
13 0
13 0
4 0
13 0
4 0
4 0
13 0
13 0
13 0
13 0
13 0
13 0
13 0
13 0
4 0
13 0
13 0
13 0
13 0
13 0
4 0
13 0
4 0
13 0
13 0
13 0
13 0
13 0
13 0
13 0
13 0
4 0
13 0
13 0
13 0
13 0
13 0
13 0
13 0
13 0
13 0
4 0
13 0
13 0
4 0
13 0
13 0
13 0
4 0
4 0
13 0
13 0
13 0
4 0
13 0
13 0
13 0
13 0
13 0
13 0
13 0
13 0
13 0
13 0
13 0
13 0
4 0
13 0
4 0
13 0
13 0
13 0
13 0
13 0
4 0
13 0
13 0
13 0
13 0
13 0
13 0
13 0
12 0
3 0
11 0
7 0
2 0
2 0
7 0
12 3 0
11 0
3 9 12 0
12 0
12 0
11 12 0
7 0
7 0
11 0
2 7 8 0
2 8 0
2 7 0
3 0
12 3 11 0
3 9 0
2 0
11 3 0
3 9 11 0
3 12 9 11 0
12 0
11 0
11 3 0
3 9 0
2 0
2 8 0
12 0
3 0
7 0
3 12 9 11 0
12 3 11 0
2 7 8 0
12 3 0
3 9 11 0
7 0
7 0
2 0
11 0
3 9 12 0
2 7 0
11 12 0
2 0
11 12 0
2 7 0
11 3 0
2 8 0
12 0
7 0
12 3 0
11 0
7 0
3 9 12 0
2 0
3 9 0
3 9 11 0
7 0
12 0
2 7 8 0
3 12 9 11 0
11 0
12 3 11 0
3 0
12 3 11 0
11 3 0
7 0
12 0
2 0
3 0
3 9 11 0
2 0
11 12 0
7 0
12 3 0
3 12 9 11 0
7 0
3 9 0
2 7 8 0
2 8 0
12 0
11 0
11 0
2 7 0
3 9 12 0
2 0
3 0
7 0
11 0
12 0
7 0
3 0
12 0
3 0
3 0
7 3 0
12 0
7 12 0
12 3 0
7 3 12 0
7 0
7 3 12 9 0
12 7 0
7 3 9 0
12 0
7 0
12 0
3 9 0
3 12 9 0
7 0
7 3 12 9 0
3 9 0
7 0
7 3 9 0
7 3 12 0
12 3 0
12 0
7 0
3 0
12 0
3 0
7 3 0
7 12 0
12 7 0
3 12 9 0
12 0
7 0
12 3 0
7 3 12 9 0
7 12 0
7 3 0
7 0
12 0
12 0
7 0
7 0
12 0
12 7 0
3 12 9 0
7 3 12 0
7 3 9 0
3 9 0
3 0
3 0
12 0
7 12 0
3 9 0
7 3 12 0
12 0
3 12 9 0
7 0
7 0
3 0
7 0
12 3 0
7 3 0
7 3 9 0
12 0
12 7 0
3 0
7 3 12 9 0
7 0
12 0
3 0
13 0
13 0
13 0
13 0
13 0
13 0
1 0
1 0
4 1 0
4 -1 0
4 0
1 0
1 0
13 -1 0
13 -1 0
13 0
13 0
-8 0
2 0
13 0
-8 0
2 0
13 0
3 12 9 0
7 3 12 0
7 3 12 9 0
7 3 9 0
3 0
7 0
12 0
3 9 0
3 0
12 7 0
7 0
12 0
7 0
7 12 0
12 3 0
7 3 0
12 0
12 0
7 0
12 0
3 0
7 3 12 0
7 0
7 3 0
7 3 9 0
12 0
12 7 0
3 0
3 12 9 0
7 12 0
12 3 0
3 9 0
7 0
7 3 12 9 0
12 0
7 0
12 0
3 0
7 3 12 0
7 0
7 3 0
7 3 9 0
12 0
12 7 0
3 0
3 12 9 0
7 12 0
12 3 0
3 9 0
7 0
7 3 12 9 0
4 1 0
4 -1 0
4 0
10 1 0
10 -1 0
10 0
1 10 0
-1 10 0
10 0
1 4 0
-1 4 0
4 0
6 0
5 0
6 0
5 14 6 0
6 15 0
5 0
5 14 0
6 15 5 0
6 0
6 15 0
6 15 5 0
5 14 0
5 14 6 0
5 0
5 14 0
5 14 6 0
6 0
5 0
6 15 5 0
6 15 0
6 0
5 0
6 15 0
5 14 0
5 14 6 0
6 15 5 0
1 0
4 0
13 0
4 0
13 0
13 0
4 0
4 0
13 0
-8 0
2 0
13 0
-8 0
2 0
13 0
11 0
3 0
7 0
2 0
12 0
7 0
7 3 12 9 0
2 0
7 12 0
12 0
3 0
11 0
7 0
12 0
12 3 0
11 2 0
7 3 9 0
7 0
3 0
11 0
3 9 0
2 0
7 3 0
11 0
12 7 0
7 3 12 0
2 8 11 0
3 12 9 0
12 0
2 8 0
2 8 0
12 0
11 0
2 8 11 0
7 0
12 7 0
12 0
11 0
3 0
2 0
3 9 0
7 3 0
12 3 0
7 12 0
7 3 9 0
7 3 12 9 0
7 3 12 0
7 0
11 0
2 0
11 2 0
12 0
7 0
3 0
3 12 9 0
11 0
3 12 9 0
7 3 9 0
3 9 0
2 8 11 0
7 3 0
12 0
7 12 0
2 8 0
11 2 0
7 3 12 9 0
7 0
3 0
2 0
11 0
2 0
7 3 12 0
7 0
12 7 0
3 0
12 3 0
11 0
7 0
12 0
12 0
3 12 9 0
2 8 11 0
3 9 0
3 0
7 0
12 0
11 2 0
12 7 0
11 0
7 12 0
2 0
7 3 12 0
12 3 0
12 0
11 0
7 0
2 0
2 8 0
7 3 0
7 3 12 9 0
3 0
11 0
12 0
7 0
7 3 9 0
2 0
7 0
12 0
3 0
11 0
3 0
2 0
2 0
3 9 0
2 8 0
3 0
2 0
3 0
2 8 0
3 9 0
3 9 0
3 0
2 0
2 8 0
3 0
2 0
2 8 0
3 9 0
3 0
2 0
1 10 0
-1 10 0
10 0
1 13 0
-1 13 0
13 0
7 12 0
7 3 0
3 0
4 2 0
3 9 0
2 4 8 0
2 0
2 14 5 0
4 0
7 3 12 0
12 0
3 0
3 9 0
7 0
2 0
7 0
12 0
16 0
12 0
2 16 8 0
16 0
7 12 0
11 0
4 0
7 12 0
3 0
4 0
2 8 0
4 0
7 12 0
7 3 12 9 0
3 12 0
2 0
2 0
14 5 0
2 0
2 8 0
7 0
12 0
2 0
7 0
16 0
2 8 0
2 0
7 3 0
4 0
4 0
3 12 0
3 9 0
2 0
7 0
7 3 9 0
2 8 0
12 0
16 0
3 9 0
7 0
4 0
3 12 0
7 3 12 0
3 9 0
2 16 0
4 0
3 0
2 0
7 0
2 8 0
12 0
4 0
3 9 0
12 0
7 12 0
3 9 0
2 8 0
2 0
3 12 9 0
2 0
12 0
4 0
12 0
3 9 0
7 3 0
4 0
2 0
3 0
5 0
2 0
2 8 0
5 0
7 3 9 0
7 3 12 9 0
3 0
3 9 0
3 0
3 0
16 0
3 0
2 11 0
2 0
2 0
2 8 0
2 0
3 0
3 0
2 4 0
7 12 0
3 12 9 0
12 0
3 9 0
4 0
3 12 9 0
16 0
2 0
2 4 8 0
7 0
3 9 0
2 8 0
7 3 12 0
4 0
3 0
3 9 0
5 0
16 0
2 0
2 0
4 0
12 0
3 0
7 3 9 0
16 0
12 0
3 0
7 12 0
3 0
11 0
4 0
12 0
14 5 0
5 0
2 0
7 3 12 9 0
2 0
2 4 8 0
2 0
2 8 0
7 0
2 4 8 0
5 0
7 3 0
2 0
7 0
7 0
2 0
7 3 12 0
12 0
3 0
2 8 0
7 3 12 9 0
5 0
11 0
2 4 0
3 0
2 8 0
2 4 0
3 12 0
3 12 9 0
2 0
7 3 12 9 0
3 12 0
2 8 5 0
4 0
4 0
3 0
2 0
7 0
7 0
4 0
2 0
2 0
7 0
7 12 0
4 0
12 3 0
7 0
2 8 11 0
3 9 0
12 0
7 0
4 0
7 3 12 0
7 0
3 12 9 0
12 0
7 12 0
4 0
7 3 9 0
4 0
3 12 9 0
12 0
7 3 0
7 3 9 0
4 0
7 12 0
2 8 0
4 0
7 0
4 0
2 8 11 0
7 3 12 0
3 0
12 0
4 0
3 9 0
4 0
7 3 0
3 0
4 0
16 0
7 12 0
7 3 12 9 0
2 8 0
3 0
2 0
2 8 0
12 0
4 0
4 2 0
16 0
7 3 12 9 0
16 0
2 8 0
7 12 0
3 0
3 9 0
7 3 9 0
2 0
7 0
2 8 0
7 12 0
2 4 0
2 0
7 0
3 12 0
3 9 0
3 12 0
5 0
7 0
2 4 0
4 0
16 0
3 0
5 0
2 0
4 0
3 0
4 0
7 0
2 0
7 0
2 4 8 0
2 0
3 0
12 0
7 0
4 0
4 0
7 3 9 0
2 0
2 0
3 9 0
2 8 0
14 5 0
3 9 0
7 0
7 0
7 3 12 9 0
3 12 0
2 8 0
7 12 0
2 0
7 3 0
7 12 0
3 9 0
7 3 12 9 0
3 9 0
4 0
12 3 0
2 0
2 0
3 9 0
2 0
12 0
2 0
7 3 12 0
3 9 0
2 0
7 3 12 0
7 3 0
7 12 0
12 0
3 9 0
2 11 0
12 0
2 4 8 0
5 0
2 8 0
2 16 0
5 0
3 9 0
3 0
7 0
2 0
5 0
7 3 9 0
3 9 0
7 0
16 0
2 4 8 0
2 8 5 0
12 0
4 0
4 0
2 0
4 0
2 4 8 0
3 12 9 0
2 0
3 12 9 0
7 3 12 9 0
3 0
7 0
2 14 5 0
12 0
3 12 9 0
4 0
2 0
4 0
7 12 0
7 3 0
3 0
3 0
7 3 12 0
4 0
2 8 0
3 0
4 0
4 0
11 0
4 0
7 0
12 0
2 0
7 12 0
2 8 0
2 0
3 0
3 12 0
12 0
7 3 9 0
16 0
4 0
7 0
2 0
3 0
7 3 0
12 0
4 0
7 0
7 12 0
7 0
14 5 0
16 0
12 0
12 0
3 0
12 0
12 0
4 0
3 9 0
7 12 0
7 0
2 0
3 12 9 0
12 0
2 0
4 0
2 0
2 0
2 8 0
5 0
3 12 9 0
2 8 0
2 16 8 0
2 0
7 3 9 0
11 0
2 8 0
3 0
4 0
12 0
3 0
2 0
11 0
3 12 9 0
7 0
2 8 0
7 0
2 4 0
3 12 0
2 0
7 3 12 0
4 0
16 0
3 0
4 0
2 0
7 0
2 0
3 0
2 0
3 0
12 0
7 0
12 0
2 0
3 0
12 0
3 0
11 0
3 0
7 0
12 0
2 0
5 0
7 0
3 0
7 0
2 0
12 0
3 0
3 0
3 12 9 0
3 0
4 0
2 0
7 3 12 9 0
7 3 12 0
2 0
3 12 0
2 0
14 5 0
11 0
7 3 0
2 0
12 0
2 8 5 0
7 3 12 0
2 4 8 0
3 0
3 0
4 0
3 12 9 0
7 0
12 0
4 0
2 16 0
7 0
4 0
2 8 0
7 0
2 8 0
7 12 0
3 0
7 3 0
2 0
12 0
7 0
2 4 8 0
3 9 0
7 0
2 0
11 0
3 0
2 0
7 3 12 0
7 12 0
3 0
2 8 0
16 0
3 12 9 0
2 0
3 9 0
3 12 9 0
12 0
12 0
2 0
3 0
3 0
2 0
4 0
5 0
12 0
7 12 0
7 12 0
3 9 0
3 12 0
4 0
7 12 0
3 0
16 0
2 0
7 3 9 0
7 3 9 0
2 8 0
2 0
3 12 9 0
4 0
2 11 0
4 0
16 0
2 0
7 0
12 0
7 12 0
2 4 0
7 3 0
16 0
12 0
16 0
3 9 0
2 4 8 0
3 0
2 8 0
2 8 0
7 3 12 9 0
7 12 0
3 12 0
2 0
4 0
4 0
2 4 0
4 0
4 0
7 12 0
14 5 0
7 0
7 12 0
4 0
2 8 0
5 0
7 0
7 3 9 0
7 0
4 0
2 8 0
2 0
2 0
7 3 12 0
5 0
3 9 0
3 9 0
2 8 0
12 0
2 0
2 4 8 0
4 2 0
4 0
12 0
4 0
7 3 0
2 8 0
16 0
7 3 12 9 0
2 0
3 9 0
2 0
2 4 0
12 0
2 8 11 0
5 0
4 0
3 9 0
4 0
2 8 0
4 0
2 0
12 0
12 0
12 0
3 9 0
2 0
2 8 0
7 3 12 0
4 0
2 14 5 0
7 0
2 0
4 0
3 12 0
3 9 0
7 3 9 0
11 0
12 0
3 12 0
16 0
3 9 0
7 0
4 0
2 8 0
12 3 0
4 0
5 0
3 0
5 0
2 0
3 0
2 0
3 0
16 0
4 0
7 0
3 9 0
2 0
4 0
7 0
7 12 0
7 0
2 0
3 0
2 8 0
2 0
3 9 0
3 0
3 0
7 0
7 3 12 9 0
7 3 12 9 0
2 16 8 0
7 0
2 0
7 0
3 0
7 0
3 9 0
2 0
3 12 9 0
7 3 9 0
12 0
12 0
7 3 0
12 0
3 0
2 0
3 0
7 0
5 0
7 0
2 0
12 0
3 0
7 0
7 0
3 0
3 0
12 0
12 0
11 0
2 0
2 0
4 0
12 0
2 0
3 0
2 0
7 0
3 0
2 0
10 0
10 0
13 0
13 0
1 0
1 0
1 0
10 -1 0
10 0
7 12 0
3 0
4 0
12 3 0
2 0
12 0
2 16 8 0
3 0
7 3 12 0
7 0
7 0
12 0
3 12 0
7 12 0
16 0
2 0
7 0
12 0
3 0
12 0
12 0
7 0
3 0
7 0
7 0
3 9 0
2 14 5 0
2 8 0
12 0
2 8 0
16 0
3 9 0
7 0
3 0
7 3 12 0
3 12 9 0
7 12 0
7 3 0
2 0
14 5 0
2 0
3 0
16 0
2 0
12 0
7 0
7 0
2 0
12 0
7 0
7 3 0
2 0
12 0
3 0
2 16 8 0
7 12 0
3 9 0
7 0
7 0
12 0
12 0
3 0
7 3 12 9 0
12 0
7 3 9 0
16 0
7 12 0
12 0
4 0
12 0
12 3 0
3 9 0
5 0
7 3 0
3 12 9 0
7 0
3 9 0
7 0
2 8 0
16 0
12 0
7 3 9 0
7 12 0
4 0
2 8 0
5 0
2 0
4 0
3 9 0
3 0
16 0
3 12 9 0
3 9 0
7 3 12 9 0
3 12 0
7 0
3 0
5 0
3 12 9 0
16 0
2 0
2 8 0
12 0
7 12 0
2 8 5 0
7 3 12 0
7 3 9 0
3 12 9 0
2 16 0
3 0
7 3 9 0
2 16 0
3 12 0
7 3 0
7 3 12 9 0
3 12 0
7 3 12 9 0
3 12 9 0
7 12 0
7 0
2 0
2 0
7 0
7 0
7 3 12 0
2 0
7 0
2 0
3 9 0
3 12 9 0
3 0
12 0
3 12 0
12 0
7 0
3 9 0
3 0
14 5 0
12 3 0
3 12 0
4 0
12 0
2 0
3 9 0
12 0
2 16 8 0
2 8 0
12 0
3 12 0
7 3 12 9 0
7 12 0
2 0
7 0
3 0
12 0
3 9 0
4 0
7 0
2 0
7 0
7 3 9 0
7 3 12 0
2 0
7 0
2 8 0
7 12 0
12 0
2 0
2 0
5 0
3 12 9 0
7 0
2 8 5 0
3 9 0
12 0
12 0
2 8 0
2 14 5 0
2 0
3 0
2 16 0
7 3 12 9 0
3 0
4 0
7 12 0
7 3 9 0
7 0
3 0
5 0
3 12 0
16 0
12 0
3 12 9 0
16 0
7 3 12 9 0
2 16 0
7 0
2 8 0
7 0
7 12 0
7 3 12 0
7 0
7 12 0
7 0
3 12 9 0
7 3 12 9 0
16 0
3 0
7 0
12 0
2 16 8 0
3 0
7 12 0
7 0
7 3 0
2 8 0
12 0
7 3 0
7 3 9 0
4 0
7 3 0
16 0
12 0
7 0
7 3 0
3 0
7 12 0
7 0
7 12 0
12 3 0
3 9 0
12 0
12 0
2 0
2 0
7 3 12 0
5 0
7 3 12 0
7 3 9 0
16 0
3 0
7 0
3 9 0
2 0
7 0
3 12 9 0
3 0
16 0
3 12 9 0
2 0
16 0
12 0
12 0
12 0
3 0
3 0
7 0
7 0
12 0
3 0
5 0
7 0
3 0
7 0
2 0
12 0
2 0
7 0
12 0
3 0
2 0
16 0
2 8 0
7 3 12 0
12 0
3 0
3 12 0
7 12 0
3 9 0
3 0
5 0
7 0
7 3 12 0
7 0
12 3 0
3 12 9 0
7 0
7 3 9 0
2 0
12 0
2 8 5 0
16 0
7 0
7 3 9 0
3 0
3 12 9 0
2 8 0
5 0
12 0
7 12 0
7 3 12 9 0
16 0
12 0
3 0
12 0
7 3 12 9 0
3 0
7 12 0
2 8 0
12 0
12 0
7 0
7 3 9 0
7 0
3 0
12 0
3 12 0
12 0
2 0
16 0
2 0
3 9 0
7 0
3 12 9 0
4 0
16 0
7 0
7 3 12 0
3 12 9 0
7 0
2 8 0
3 12 0
4 0
2 0
7 3 0
16 0
12 0
7 0
3 12 9 0
16 0
7 3 12 9 0
3 9 0
2 0
7 3 12 9 0
3 9 0
7 3 0
2 0
7 12 0
4 0
2 0
7 0
2 16 0
12 0
3 9 0
7 0
7 0
7 0
2 16 8 0
7 12 0
7 0
3 0
4 0
3 0
3 0
7 0
2 0
12 0
5 0
2 16 0
3 0
2 14 5 0
7 12 0
7 3 0
2 8 0
7 0
3 9 0
12 0
2 16 8 0
2 0
12 0
2 0
7 12 0
3 0
7 3 9 0
12 0
3 12 0
12 3 0
2 0
3 9 0
7 0
14 5 0
7 3 12 0
12 0
3 12 9 0
7 3 0
7 12 0
16 0
2 0
7 0
7 0
2 0
3 0
3 0
12 0
12 0
7 0
2 0
12 0
2 0
12 0
5 0
7 0
3 0
16 0
3 0
3 0
7 0
12 0
7 1 0
7 -1 0
7 0
7 1 0
7 -1 0
7 0
7 1 0
7 -1 0
7 0
-8 2 0
2 8 1 0
2 8 -1 0
2 0
10 1 0
10 -1 0
10 0
1 10 0
-1 10 0
10 0
1 0
16 -1 0
16 0
1 0
-1 4 0
1 0
4 0
10 0
10 0
5 0
5 14 0
5 0
6 15 0
6 0
15 5 6 0
6 0
14 5 6 0
5 0
6 0
13 1 0
13 -1 0
13 0
2 -8 0
2 8 1 0
2 8 -1 0
2 0
4 0
4 0
-8 0
2 0
13 0
-8 0
2 0
13 0
5 0
5 14 0
6 0
6 15 5 0
6 15 0
5 14 6 0
5 0
6 0
10 0
10 0
2 -16 -8 0
2 0
16 0
16 0
2 8 0
16 0
2 8 0
16 0
2 0
2 8 0
16 0
16 0
2 0
16 0
2 0
2 8 0
16 0
16 0
2 0
7 10 0
10 0
7 0
10 0
10 7 0
7 0
10 7 0
7 0
7 0
10 0
10 0
7 10 0
7 0
10 0
10 0
7 10 0
7 0
10 7 0
10 7 0
7 0
10 0
7 0
10 0
7 10 0
7 10 0
10 0
7 0
10 0
7 0
10 7 0
10 0
7 10 0
10 7 0
7 0
7 0
10 0
10 0
7 0
1 0
7 1 0
7 -1 0
7 0
-14 5 -15 0
-6 -14 5 0
-14 -15 6 0
-5 -15 6 0
5 14 1 0
15 1 5 6 0
1 14 5 6 0
6 15 1 0
5 14 -1 0
6 15 -1 0
-1 14 5 6 0
-1 15 5 6 0
5 0
6 0
13 1 0
13 -1 0
13 0
1 0
2 0
3 0
2 0
2 8 0
3 9 0
3 0
3 0
2 0
3 0
2 0
2 8 0
3 9 0
3 0
3 0
2 0
2 0
3 0
2 0
3 0
3 0
2 8 0
2 8 0
3 9 0
3 9 0
2 0
2 0
3 0
2 0
3 0
2 8 0
2 0
3 9 0
2 8 0
2 0
2 0
3 0
2 0
3 0
3 0
3 9 0
3 0
2 0
3 9 0
2 8 0
3 0
2 0
4 1 0
4 -1 0
4 0
10 0
10 0
10 0
10 0
10 0
10 0
1 0
16 -1 0
16 0
-8 2 0
2 8 1 0
2 8 -1 0
2 0
16 0
16 0
16 0
16 0
16 0
16 0
16 0
16 0
6 15 5 0
6 0
5 14 6 0
6 15 0
5 14 0
5 0
6 0
5 0
2 8 0
13 2 0
13 0
2 8 13 0
2 8 0
13 2 0
13 0
2 8 13 0
1 4 0
-1 4 0
4 0
1 10 0
-1 10 0
10 0
10 0
7 0
7 0
10 0
7 0
10 0
7 0
10 0
10 0
7 0
10 0
10 0
7 0
7 0
10 0
10 0
7 0
7 0
10 0
7 0
10 0
10 0
1 13 0
-1 13 0
13 0
4 1 0
4 -1 0
4 0
1 4 0
-1 4 0
4 0
1 0
4 3 9 0
4 0
3 0
3 9 0
4 3 0
4 0
3 0
4 0
3 9 0
4 0
4 3 0
4 3 9 0
4 0
3 0
4 3 0
4 0
3 9 0
4 3 9 0
1 0
4 -1 0
-1 2 4 13 0
-1 2 8 13 0
4 2 -1 0
13 4 -1 0
2 8 -1 0
-1 2 4 8 13 0
-1 2 4 8 0
13 -1 0
13 2 -1 0
2 8 4 0
13 4 0
13 0
4 2 0
13 2 0
4 0
2 8 13 0
13 2 4 0
2 4 8 13 0
2 8 0
7 0
3 0
12 0
7 0
3 9 0
7 3 12 0
7 3 9 0
12 3 0
12 7 0
7 0
12 0
7 3 0
7 12 0
12 0
7 0
3 0
12 0
7 3 12 9 0
3 0
3 12 9 0
12 7 0
7 3 0
3 0
12 0
7 0
12 0
3 9 0
7 3 12 9 0
7 0
7 3 12 0
7 12 0
7 3 9 0
3 12 9 0
12 3 0
3 0
7 0
12 0
7 12 0
7 3 12 0
7 0
12 7 0
12 0
3 9 0
7 0
12 0
7 3 12 9 0
7 0
7 3 0
3 0
3 0
12 3 0
12 0
3 12 9 0
7 3 9 0
12 7 0
3 0
7 3 0
7 3 12 0
3 0
12 0
3 12 9 0
3 9 0
7 3 12 9 0
7 0
12 0
7 0
12 3 0
7 12 0
7 0
7 3 9 0
12 0
7 0
3 0
12 0
10 7 0
10 0
10 0
7 0
7 0
7 10 0
7 10 0
7 0
7 0
10 0
10 0
10 7 0
10 0
7 10 0
7 0
7 0
10 7 0
10 0
10 0
10 7 0
10 0
7 0
7 10 0
7 0
7 0
10 0
4 1 0
4 -1 0
4 0
1 0
1 0
6 15 5 0
6 0
5 14 0
5 0
6 15 0
5 14 6 0
6 0
5 0
1 0
7 1 0
7 -1 0
7 0
-8 2 0
2 8 1 0
2 8 -1 0
2 0
2 0
3 0
3 9 2 0
3 0
3 9 0
2 0
2 8 0
2 8 3 0
2 8 0
3 9 0
3 0
3 9 2 0
2 0
2 8 3 0
3 0
2 8 0
3 9 0
3 9 2 0
2 0
2 8 3 0
3 9 0
2 0
2 8 0
3 9 2 0
2 8 3 0
3 0
3 0
2 8 0
2 0
3 9 0
2 0
3 0
1 0
-8 2 0
2 8 1 0
2 8 -1 0
2 0
16 0
16 1 0
16 -1 0
16 0
-8 2 0
2 8 1 0
2 8 -1 0
2 0
2 0
3 0
2 8 0
3 9 2 0
3 9 0
2 8 3 0
3 0
2 0
2 0
3 0
3 9 0
2 8 3 0
3 9 2 0
2 8 0
2 8 3 0
2 8 0
3 9 0
2 0
3 0
3 9 2 0
2 8 0
2 0
3 0
2 8 3 0
3 9 2 0
3 9 0
2 8 0
2 0
3 0
3 9 0
3 0
2 0
7 1 0
10 1 0
7 1 10 0
10 7 1 0
7 -1 0
-1 7 10 0
10 7 -1 0
10 -1 0
10 0
7 0
5 14 0
5 0
6 15 0
5 14 6 0
6 15 5 0
6 0
6 0
5 0
2 0
3 0
2 0
3 9 0
2 8 0
2 8 3 0
3 0
3 9 2 0
3 9 2 0
3 9 0
2 8 3 0
2 8 0
2 0
3 0
2 8 3 0
3 9 0
2 0
3 0
3 9 2 0
2 8 0
3 0
2 0
2 8 0
3 9 0
3 0
2 0
2 -8 0
2 8 1 0
2 8 -1 0
2 0
4 0
4 0
4 0
4 0
16 1 0
16 -1 0
16 0
4 1 0
4 -1 0
4 0
16 1 0
16 -1 0
16 0
1 0
4 1 0
4 -1 0
4 0
13 1 0
13 -1 0
13 0
13 0
13 0
13 0
13 0
13 0
13 0
13 0
13 0
13 0
-8 -13 2 0
2 8 1 0
13 2 1 0
13 1 0
2 1 8 13 0
2 8 -1 0
13 2 -1 0
13 -1 0
-1 2 8 13 0
13 0
2 0
5 0
6 15 5 0
6 15 0
5 14 0
6 0
5 14 6 0
5 0
6 0
1 0
10 0
10 0
10 0
10 0
10 0
10 0
10 0
10 0
10 0
10 0
10 0
5 0
16 0
16 1 0
1 16 5 0
5 14 1 0
1 16 14 5 0
5 14 -1 0
-1 16 5 0
16 -1 0
-1 16 14 5 0
5 0
16 0
4 1 0
4 -1 0
4 0
2 0
3 0
3 9 2 0
2 0
3 9 0
3 0
2 8 3 0
2 8 0
3 9 2 0
2 8 3 0
2 8 0
2 0
3 0
3 9 0
3 9 0
2 8 0
2 0
3 9 2 0
2 8 3 0
3 0
2 0
3 0
1 4 0
-1 4 0
4 0
4 0
3 0
2 0
4 0
4 0
3 0
4 2 0
2 8 4 0
3 9 0
2 8 0
2 0
4 2 0
3 0
2 0
4 0
3 9 0
2 8 4 0
2 8 0
4 0
2 8 4 0
2 8 0
4 0
3 9 0
4 0
2 0
4 2 0
3 0
2 0
2 8 4 0
4 0
3 9 0
4 0
3 0
2 8 0
4 2 0
4 0
2 0
3 0
1 4 0
-1 4 0
4 0
4 0
4 0
4 0
4 0
1 0
4 -1 0
4 0
2 0
2 0
-8 0
13 2 0
-8 0
13 0
2 0
2 0
13 0
2 0
2 0
-8 0
13 0
13 0
13 0
-8 0
13 0
2 0
-8 0
13 0
2 8 13 0
2 0
13 0
-8 0
-8 0
2 0
13 0
13 0
13 0
-8 0
13 0
-8 0
-8 0
13 0
2 0
2 8 0
13 0
-8 0
13 0
2 0
2 0
2 0
-8 0
13 0
13 0
2 0
-8 0
-8 0
2 0
3 0
2 0
2 8 3 0
3 9 0
3 0
3 9 2 0
2 8 0
2 0
2 8 3 0
3 9 0
3 0
3 9 2 0
2 8 0
3 9 2 0
2 0
3 0
2 8 0
3 9 0
2 8 3 0
3 9 0
2 8 3 0
3 9 2 0
2 8 0
3 0
2 0
2 8 0
3 0
2 0
3 9 0
2 0
3 0
10 0
1 4 0
-1 4 0
4 0
1 4 0
-1 4 0
4 0
2 -13 -8 0
2 0
2 8 0
2 8 13 0
13 2 0
13 0
13 0
13 2 0
2 0
13 0
2 8 13 0
13 0
2 8 0
13 0
2 0
2 8 13 0
13 2 0
13 0
2 8 0
13 2 0
2 8 0
13 0
13 0
2 0
2 8 13 0
13 0
2 0
13 0
4 13 0
13 4 0
4 0
4 0
13 0
13 0
4 13 0
13 4 0
4 0
4 0
13 0
-8 -16 2 0
2 8 1 0
2 1 16 0
16 1 0
2 1 16 8 0
2 8 -1 0
-1 2 16 0
16 -1 0
-1 2 16 8 0
16 0
2 0
12 0
3 0
7 3 9 0
3 12 9 0
12 0
3 9 0
7 0
7 0
7 0
12 0
3 0
7 3 12 0
12 7 0
7 12 0
7 3 12 9 0
7 3 0
12 3 0
7 3 0
12 0
3 0
7 12 0
7 3 12 9 0
7 3 12 0
7 0
7 0
12 7 0
7 3 9 0
12 0
12 3 0
12 0
3 9 0
3 0
3 12 9 0
7 0
7 3 0
12 0
3 0
7 12 0
7 3 12 9 0
7 3 12 0
7 0
7 0
12 7 0
7 3 9 0
12 0
12 3 0
12 0
3 9 0
3 0
3 12 9 0
7 0
13 0
13 0
13 0
13 0
4 1 0
4 -1 0
4 0
1 10 0
-1 10 0
10 0
5 14 0
6 15 5 0
6 0
5 0
5 14 6 0
6 15 0
-8 2 0
2 8 1 0
2 8 -1 0
2 0
3 0
12 0
7 0
7 0
7 12 0
12 0
3 12 9 0
3 0
7 3 0
3 9 0
12 0
7 3 12 9 0
7 3 9 0
3 0
12 0
7 0
12 3 0
7 3 12 0
12 7 0
7 0
7 3 12 0
7 3 0
3 0
12 0
7 0
3 9 0
3 0
12 7 0
7 3 9 0
12 0
7 3 12 9 0
7 0
7 0
12 3 0
12 0
7 12 0
3 12 9 0
7 3 12 9 0
12 0
7 12 0
7 0
3 12 9 0
3 0
12 0
7 3 12 0
7 3 0
12 0
12 3 0
7 0
3 0
7 3 9 0
3 9 0
7 0
12 7 0
12 0
3 9 0
12 0
12 3 0
7 3 0
12 0
3 0
3 0
12 7 0
3 12 9 0
7 3 9 0
7 3 12 9 0
7 12 0
7 0
7 0
7 3 12 0
7 0
7 0
12 0
3 0
2 -8 0
2 8 1 0
2 8 -1 0
2 0
1 0
16 1 0
16 -1 0
16 0
16 1 0
16 -1 0
16 0
-8 2 0
2 8 1 0
2 8 -1 0
2 0
4 1 0
4 -1 0
4 0
7 0
12 0
2 0
11 0
3 0
2 0
7 3 12 9 0
7 0
3 9 0
2 8 11 0
12 3 0
2 0
7 3 0
11 0
11 0
3 12 9 0
7 12 0
12 7 0
12 0
7 0
3 0
2 8 0
7 0
7 3 12 0
3 0
11 0
12 0
12 0
11 2 0
7 3 9 0
12 3 0
11 2 0
2 8 0
12 7 0
2 0
7 12 0
7 3 12 0
7 0
12 0
2 0
7 0
7 3 0
3 12 9 0
3 9 0
7 3 12 9 0
2 8 11 0
7 0
12 0
3 0
11 0
11 0
11 0
12 0
7 3 9 0
3 0
7 3 12 0
7 3 12 9 0
12 7 0
7 3 9 0
7 0
11 0
2 8 0
7 12 0
12 0
2 0
3 0
12 0
2 8 11 0
11 0
2 0
3 0
12 3 0
11 0
3 9 0
7 0
7 3 0
7 0
12 0
3 12 9 0
11 2 0
12 0
12 3 0
3 12 9 0
11 0
3 9 0
2 0
7 3 9 0
7 12 0
3 0
2 8 11 0
2 8 0
7 0
7 0
12 0
7 3 0
7 0
7 3 12 0
12 0
7 3 12 9 0
11 0
11 0
11 2 0
3 0
2 0
12 7 0
11 0
12 0
7 0
2 0
3 0
-8 2 0
2 8 1 0
2 8 -1 0
2 0
1 0
1 0
13 0
13 0
13 0
13 0
13 0
13 0
13 0
13 0
13 0
-8 2 0
2 8 1 0
2 8 -1 0
2 0
6 15 5 0
5 14 0
6 15 0
5 0
5 14 6 0
6 0
6 15 5 0
5 14 0
6 15 0
5 14 6 0
6 15 5 0
5 14 0
6 15 0
5 14 6 0
16 1 0
16 -1 0
16 0
4 1 0
4 -1 0
4 0
10 0
10 0
10 0
10 0
10 0
10 0
10 0
10 0
10 0
-6 -14 5 0
-14 -15 6 0
-14 5 -15 0
-5 -15 6 0
6 15 1 0
5 14 1 0
1 14 5 6 0
15 1 5 6 0
-1 14 5 6 0
5 14 -1 0
6 15 -1 0
-1 15 5 6 0
5 0
6 0
16 0
16 0
16 0
16 0
16 0
16 0
16 0
16 0
16 0
-8 2 0
2 8 1 0
2 8 -1 0
2 0
6 15 0
5 14 6 0
5 14 0
6 15 5 0
6 15 0
5 14 6 0
5 14 0
6 15 5 0
10 0
10 0
10 -1 0
10 0
16 0
16 0
16 0
1 10 0
-1 10 0
10 0
13 1 0
13 -1 0
13 0
-8 1 0
-2 -8 0
2 8 0
2 -4 0
12 0
7 0
3 0
7 0
12 0
7 0
12 7 0
3 9 0
7 3 0
7 0
7 3 9 0
3 0
3 0
7 3 12 0
3 12 9 0
12 0
7 12 0
7 3 12 9 0
12 3 0
12 0
7 0
3 12 9 0
7 3 9 0
7 3 12 0
7 12 0
12 3 0
7 0
3 9 0
12 7 0
12 0
3 0
7 3 0
12 0
3 0
7 3 12 9 0
12 0
7 0
7 3 9 0
12 3 0
7 3 0
7 12 0
12 0
12 0
7 0
7 0
3 0
12 0
3 9 0
7 3 12 9 0
3 12 9 0
7 3 12 0
12 7 0
3 0
7 0
3 0
7 3 12 9 0
7 0
3 12 9 0
12 0
7 0
12 0
7 3 9 0
7 12 0
12 0
3 0
12 3 0
3 9 0
7 0
12 7 0
7 3 12 0
7 3 0
7 0
12 0
3 0
2 0
3 0
2 0
3 9 2 0
2 8 0
2 8 3 0
3 9 0
3 0
3 9 0
2 8 3 0
2 8 0
2 0
3 0
3 9 2 0
3 9 2 0
2 0
3 9 0
2 8 0
3 0
2 8 3 0
2 8 0
2 8 3 0
3 9 2 0
2 0
3 0
3 9 0
2 0
2 8 3 0
2 8 0
3 9 0
3 0
3 9 2 0
2 0
3 0
1 0
1 4 0
-1 4 0
4 0
5 14 0
5 0
6 15 0
6 15 5 0
5 14 6 0
6 0
5 0
6 0
1 0
7 1 0
7 -1 0
7 0
10 0
10 0
10 0
10 0
3 0
2 4 8 0
4 2 0
3 9 0
3 9 0
11 3 0
4 0
2 0
11 0
11 0
4 0
2 8 0
3 9 11 0
3 9 0
11 0
2 0
4 0
4 0
3 0
3 9 0
11 3 0
2 8 0
4 2 0
2 4 8 0
11 0
3 9 11 0
11 0
2 0
3 0
4 0
3 0
3 0
2 8 4 0
2 4 8 0
2 8 0
2 8 0
4 2 0
2 0
4 0
3 9 0
3 0
4 0
4 0
2 0
3 9 0
11 3 0
11 0
11 0
3 9 11 0
4 0
4 2 0
3 9 0
3 0
4 0
2 0
3 0
4 0
2 0
3 0
11 0
10 1 0
10 -1 0
10 0
7 0
7 0
-5 -15 6 0
-14 5 -15 0
-14 -15 6 0
-6 -14 5 0
15 1 5 6 0
6 15 1 0
5 14 1 0
1 14 5 6 0
-1 15 5 6 0
-1 14 5 6 0
6 15 -1 0
5 14 -1 0
5 0
6 0
1 0
13 0
13 0
2 1 8 0
2 1 0
2 -1 0
2 0
2 8 0
-8 2 0
2 8 1 0
2 8 -1 0
2 0
16 1 0
16 -1 0
16 0
2 0
3 0
2 8 3 0
3 9 0
2 0
3 0
3 9 2 0
2 8 0
3 9 2 0
3 9 0
2 0
2 8 3 0
3 0
2 8 0
3 9 2 0
2 8 0
2 0
2 8 3 0
3 0
3 9 0
3 0
2 8 0
2 0
3 9 0
3 0
2 0
10 0
13 0
13 0
13 0
13 0
1 0
1 0
4 1 0
4 -1 0
4 0
-8 2 0
2 8 1 0
2 8 -1 0
2 0
6 15 5 0
6 15 0
5 14 6 0
6 0
5 0
5 14 0
6 0
5 0
10 0
10 0
10 0
10 0
10 0
10 0
10 0
10 0
10 0
10 0
6 0
6 15 0
5 0
6 15 5 0
5 14 6 0
5 14 0
10 7 1 0
7 1 0
10 1 0
7 1 10 0
7 -1 0
10 7 -1 0
10 -1 0
-1 7 10 0
7 0
10 0
3 0
3 9 0
16 1 0
16 -1 0
16 0
3 0
2 0
2 8 0
3 9 0
2 8 3 0
3 0
3 9 2 0
2 0
2 8 3 0
3 9 2 0
2 0
3 9 0
2 8 0
3 0
3 0
2 8 0
2 0
3 9 2 0
2 8 3 0
3 9 0
3 9 0
2 0
2 8 0
3 0
3 0
2 0
10 1 0
10 -1 0
10 0
-8 0
-8 0
13 0
13 0
2 0
-8 0
2 0
13 0
13 0
2 0
-8 0
4 0
-8 0
-8 0
13 0
2 0
2 0
2 0
13 0
16 0
-8 0
13 0
13 0
2 0
13 0
2 8 0
2 0
3 0
3 9 2 0
3 0
2 8 3 0
2 0
2 8 0
3 9 0
2 16 0
3 9 2 0
2 16 8 0
12 3 0
3 0
2 0
16 0
12 0
3 0
12 0
7 0
3 9 0
2 8 0
3 12 9 0
16 0
16 0
7 0
2 0
2 8 3 0
7 0
2 0
2 8 0
3 9 0
2 0
16 0
2 8 3 0
3 0
3 9 0
16 0
3 12 9 0
2 8 0
2 0
3 9 0
12 0
12 3 0
12 0
2 0
2 16 8 0
7 0
2 0
16 0
2 0
7 0
2 16 0
16 0
16 0
3 0
3 9 2 0
7 0
2 8 0
7 0
3 0
3 9 0
16 0
2 0
12 0
2 8 0
2 8 3 0
2 0
3 9 2 0
3 0
2 8 0
2 8 0
12 3 0
7 0
2 16 8 0
3 0
3 12 9 0
12 0
2 0
12 0
7 0
2 0
3 9 0
16 0
3 9 0
3 0
2 16 0
2 8 3 0
2 0
16 0
7 0
3 9 2 0
16 0
16 0
2 0
2 0
7 0
16 0
12 0
2 0
3 0
3 0
5 14 0
6 15 5 0
6 0
5 14 6 0
6 15 0
5 0
5 14 0
6 15 0
5 0
6 15 5 0
6 0
5 14 6 0
5 14 0
6 0
5 14 6 0
5 0
6 15 0
6 15 5 0
6 15 5 0
6 15 0
6 0
5 14 0
5 0
5 14 6 0
1 0
-1 4 0
1 0
4 0
-8 2 0
2 8 1 0
2 8 -1 0
2 0
1 0
3 0
4 3 0
4 0
4 0
3 9 0
4 3 9 0
4 0
4 3 9 0
3 0
4 3 0
4 0
3 9 0
4 0
4 3 0
3 9 0
4 3 9 0
3 0
4 0
3 0
4 0
4 3 0
4 0
4 3 9 0
3 9 0
5 0
5 14 0
5 14 6 0
6 15 5 0
6 0
6 15 0
6 0
5 0
7 0
7 0
7 0
7 0
10 0
10 0
10 0
10 0
10 0
10 0
10 0
10 0
10 0
10 0
1 0
13 0
13 -1 0
13 0
13 1 0
13 -1 0
13 0
7 1 0
7 -1 0
7 0
4 1 0
4 -1 0
4 0
7 0
7 0
10 0
10 0
1 10 0
-1 10 0
10 0
-8 2 0
2 8 1 0
2 8 -1 0
2 0
-14 -15 6 0
-5 -15 6 0
-6 -14 5 0
-14 5 -15 0
5 14 1 0
1 14 5 6 0
15 1 5 6 0
6 15 1 0
6 15 -1 0
-1 14 5 6 0
5 14 -1 0
-1 15 5 6 0
5 0
6 0
10 1 0
10 -1 0
10 0
1 0
16 -1 0
16 0
2 0
3 0
2 0
2 8 3 0
3 0
2 8 0
3 9 2 0
3 9 0
2 8 3 0
3 0
2 0
3 9 0
3 9 2 0
2 8 0
3 9 0
3 0
3 9 2 0
2 8 0
2 0
2 8 3 0
2 8 3 0
2 8 0
3 9 2 0
2 0
3 9 0
3 0
2 8 0
2 0
3 9 0
3 0
3 0
2 0
4 0
4 0
3 0
2 0
2 8 0
2 8 3 0
3 9 0
3 9 2 0
3 0
2 0
7 3 9 0
7 0
12 0
3 0
7 0
2 0
7 0
3 9 0
2 11 0
11 0
3 9 2 0
7 12 0
7 3 0
3 9 0
2 8 11 0
7 3 12 9 0
7 3 12 0
11 0
12 0
2 8 0
3 12 0
2 0
3 12 9 0
7 12 0
11 0
2 8 3 0
12 0
2 0
2 8 0
3 0
3 0
7 3 12 0
3 0
7 12 0
2 0
11 0
12 0
2 8 0
3 0
3 12 0
2 11 0
7 3 0
12 0
11 0
7 0
3 9 0
2 8 11 0
7 0
2 8 0
12 0
3 9 2 0
2 0
7 3 9 0
7 0
3 9 0
11 0
3 12 9 0
7 3 12 9 0
7 12 0
2 0
3 0
2 8 3 0
2 8 0
2 0
3 0
12 0
3 0
3 9 0
2 8 3 0
2 0
11 0
7 0
3 9 2 0
3 0
11 0
3 12 0
2 0
3 0
2 8 0
12 0
2 8 0
11 0
11 0
7 3 12 9 0
3 0
2 8 11 0
3 12 9 0
2 0
2 11 0
7 12 0
7 12 0
2 0
7 3 12 0
7 0
7 0
12 0
7 0
12 0
7 3 0
3 9 0
7 3 9 0
3 9 0
2 0
7 0
3 0
11 0
3 0
12 0
2 0
10 0
10 0
10 0
10 0
2 0
3 0
3 0
3 9 0
2 0
2 8 0
3 0
2 0
3 9 0
2 8 0
3 9 0
2 0
3 0
2 8 0
2 0
3 0
3 9 0
2 8 0
3 0
2 0
4 0
4 0
4 0
4 0
4 0
4 0
4 0
4 0
2 -13 -8 0
13 0
2 0
13 0
2 8 0
13 0
2 0
2 8 0
13 0
13 0
13 0
2 0
2 8 0
13 0
13 0
2 0
2 8 0
13 0
2 0
2 -13 -4 -8 0
4 1 0
13 4 1 0
2 4 1 8 0
2 8 1 0
2 1 8 13 0
13 2 1 0
4 2 1 0
2 4 1 8 13 0
13 1 0
2 4 1 13 0
4 2 -1 0
13 4 -1 0
13 2 -1 0
-1 2 4 8 0
-1 2 4 8 13 0
-1 2 4 13 0
2 8 -1 0
4 -1 0
-1 2 8 13 0
13 -1 0
13 0
2 0
4 0
4 0
4 0
4 0
4 0
4 0
4 0
4 0
4 0
4 0
4 0
4 0
4 0
4 0
4 0
4 0
4 0
4 0
6 0
5 14 6 0
5 14 0
6 15 0
5 0
6 15 5 0
10 1 0
10 -1 0
10 0
10 0
10 0
1 4 0
-1 4 0
4 0
1 0
7 0
10 7 0
7 10 0
7 0
10 0
10 0
7 0
7 10 0
10 7 0
7 0
10 0
10 0
7 0
10 7 0
7 10 0
10 0
7 0
10 0
7 0
10 7 0
7 10 0
7 0
10 0
10 0
10 0
7 0
4 0
4 0
4 0
4 0
4 0
4 0
4 0
4 0
4 0
1 13 0
1 4 0
-1 13 0
-1 4 0
13 0
4 0
-8 2 0
2 8 1 0
2 8 -1 0
2 0
10 0
10 0
13 0
13 0
13 0
13 0
13 0
13 0
10 1 0
10 -1 0
10 0
7 0
12 0
3 0
12 0
3 0
7 0
7 3 12 9 0
12 0
7 3 12 0
12 0
7 3 0
3 0
7 0
12 3 0
12 7 0
3 9 0
3 12 9 0
7 3 9 0
7 12 0
7 0
3 12 9 0
7 3 9 0
12 0
7 12 0
12 7 0
12 0
12 0
7 0
7 3 0
7 3 12 9 0
3 9 0
7 0
7 3 12 0
3 0
12 3 0
7 0
3 0
7 12 0
3 0
3 0
3 0
12 0
7 0
3 9 0
7 0
7 3 0
7 3 12 0
7 0
7 3 12 9 0
12 7 0
12 0
3 12 9 0
3 9 0
3 12 0
12 0
7 0
7 3 12 9 0
7 3 0
12 0
7 12 0
7 3 9 0
7 0
3 12 9 0
12 0
7 3 12 0
7 3 9 0
7 12 0
12 0
12 3 0
3 0
7 0
12 0
3 0
12 0
12 3 0
12 7 0
3 12 9 0
7 12 0
7 3 9 0
7 0
7 3 0
7 3 12 0
12 0
7 0
7 3 12 9 0
3 0
3 9 0
7 0
7 0
7 3 12 9 0
12 7 0
3 9 0
12 0
12 0
7 0
7 3 0
7 3 12 0
7 0
7 12 0
7 3 9 0
3 0
3 0
12 3 0
12 0
3 12 9 0
3 9 0
7 0
7 0
7 3 9 0
7 3 0
12 0
7 3 12 9 0
12 0
3 0
12 3 0
7 12 0
7 0
3 12 9 0
3 0
7 3 12 0
12 7 0
12 0
7 0
3 0
12 0
13 0
13 0
13 0
13 0
13 0
13 0
13 0
13 0
13 0
1 0
13 -1 0
13 -1 0
13 0
13 0
4 0
4 0
10 0
10 0
7 0
7 0
4 0
7 0
10 0
10 0
4 0
7 0
7 0
4 0
10 0
10 0
10 0
4 0
4 0
10 0
7 0
7 0
10 0
4 0
7 0
10 0
16 1 0
16 -1 0
16 0
1 4 0
-1 4 0
4 0
1 10 0
-1 10 0
10 0
6 0
7 0
5 0
5 0
5 14 0
6 0
6 0
15 5 6 0
7 0
6 15 0
7 0
5 0
14 5 6 0
7 0
6 0
7 0
7 0
6 0
5 0
5 14 0
7 0
5 0
14 5 6 0
6 15 0
15 5 6 0
6 0
5 0
6 0
5 14 0
14 5 6 0
7 0
7 0
6 15 0
5 0
7 0
15 5 6 0
7 0
6 0
5 0
14 5 6 0
15 5 6 0
5 0
7 0
6 15 0
5 14 0
6 0
7 0
7 0
3 0
12 0
3 9 0
7 0
3 0
12 7 0
12 0
12 3 0
12 0
3 0
7 3 0
7 3 9 0
7 3 12 9 0
12 0
7 0
7 12 0
7 3 12 0
7 0
3 12 9 0
3 0
7 12 0
7 0
3 9 0
12 0
7 0
12 0
7 3 12 0
7 3 12 9 0
12 3 0
3 0
3 12 9 0
12 0
12 7 0
7 3 9 0
7 0
7 3 0
7 3 12 9 0
12 7 0
7 3 0
3 0
7 3 9 0
3 0
12 3 0
7 12 0
7 3 12 0
7 0
12 0
3 9 0
7 0
12 0
12 0
3 12 9 0
7 0
3 12 9 0
12 7 0
7 0
3 9 0
7 0
7 3 0
7 3 9 0
12 0
7 3 12 0
7 3 12 9 0
12 3 0
7 0
3 0
12 0
12 0
3 0
7 12 0
3 0
7 0
12 0
13 0
13 0
13 0
13 0
13 0
13 0
13 0
13 0
13 0
10 0
10 0
10 0
10 0
10 0
10 0
-1 10 0
10 -1 0
10 0
10 0
10 0
-8 2 0
2 8 1 0
2 8 -1 0
2 0
5 14 6 0
5 0
5 14 0
6 0
6 15 0
6 15 5 0
6 0
5 0
7 1 0
7 -1 0
7 0
10 1 0
10 -1 0
10 0
1 0
4 0
5 0
4 0
16 0
4 0
4 0
4 0
3 9 0
4 0
2 8 0
16 0
4 0
5 0
3 0
14 5 0
16 0
4 0
4 0
2 0
2 0
3 9 0
2 0
2 8 0
2 8 0
2 0
2 0
16 0
4 0
2 0
2 8 0
2 0
3 9 0
2 0
2 0
3 0
5 0
2 4 8 0
2 4 8 0
16 0
2 0
4 0
4 0
3 0
2 4 0
3 0
4 2 0
4 0
2 4 8 0
3 9 0
2 0
4 0
2 4 0
4 0
3 0
4 0
2 0
3 9 0
2 8 0
3 9 0
4 0
4 0
4 0
4 0
16 0
4 0
2 8 0
2 0
5 0
2 4 8 0
2 0
2 0
16 0
3 0
2 4 0
16 0
2 0
3 0
4 0
2 4 8 0
4 0
2 0
2 8 0
2 0
4 2 0
2 0
4 0
4 0
5 0
3 0
2 0
3 9 0
4 0
4 0
16 0
2 0
2 4 0
4 0
14 5 0
16 0
2 8 0
2 4 8 0
2 0
5 0
4 0
3 9 0
4 0
16 0
3 0
2 4 8 0
4 0
4 0
2 0
2 0
4 0
2 4 8 0
3 0
4 0
16 0
2 4 8 0
16 0
4 0
2 0
2 0
4 2 0
2 8 0
5 0
3 0
3 9 0
2 8 0
4 0
3 0
3 9 0
4 0
4 0
2 0
2 0
3 9 0
16 0
2 0
2 8 0
2 4 0
2 0
3 9 0
2 8 0
5 0
14 5 0
4 0
2 0
2 4 0
4 0
3 0
4 0
4 0
4 0
2 0
16 0
5 0
4 0
2 0
4 0
3 9 0
4 0
4 0
4 0
3 0
6 0
5 14 6 0
5 0
6 15 5 0
5 14 0
6 15 0
-8 2 0
2 8 1 0
2 8 -1 0
2 0
5 0
6 15 0
5 14 0
5 14 6 0
6 0
6 15 5 0
6 0
5 0
1 10 0
-1 10 0
10 0
-8 2 0
2 8 1 0
2 8 -1 0
2 0
7 1 10 0
10 7 1 0
7 1 0
10 1 0
10 7 -1 0
-1 7 10 0
7 -1 0
10 -1 0
10 0
7 0
7 1 0
7 -1 0
7 0
1 10 0
-1 10 0
10 0
1 10 0
-1 10 0
10 0
3 0
4 0
2 0
3 0
4 0
2 8 0
3 9 0
4 2 0
2 0
2 8 4 0
4 0
2 0
2 8 0
3 0
3 9 0
2 8 4 0
4 0
4 2 0
4 0
2 0
4 2 0
3 0
4 0
3 9 0
4 0
2 8 4 0
2 8 0
2 8 4 0
4 0
4 0
3 9 0
2 8 0
2 0
3 0
4 2 0
3 0
2 0
4 0
6 15 0
5 14 6 0
5 14 0
6 15 5 0
6 15 0
5 14 6 0
5 14 0
6 15 5 0
-8 2 0
2 8 1 0
2 8 -1 0
2 0
-8 2 0
2 8 1 0
2 8 -1 0
2 0
13 4 0
13 4 0
7 1 0
7 -1 0
7 0
12 0
3 0
7 0
12 0
12 0
7 3 12 9 0
12 7 0
12 3 0
12 0
7 12 0
3 0
7 0
3 9 0
7 3 0
7 3 12 0
3 0
7 0
7 3 9 0
3 12 9 0
7 0
12 3 0
12 0
3 0
7 3 9 0
7 12 0
7 0
7 0
12 0
3 12 9 0
7 3 12 9 0
7 3 0
12 7 0
3 9 0
12 0
7 3 12 0
3 0
7 0
7 0
12 7 0
7 3 9 0
7 12 0
12 0
3 0
3 0
3 12 9 0
7 3 0
7 0
7 0
12 0
3 9 0
7 3 12 0
7 3 12 9 0
12 0
12 3 0
7 3 12 0
7 3 0
3 12 9 0
3 9 0
3 0
7 12 0
12 0
12 0
3 0
12 3 0
7 3 9 0
12 0
7 0
7 0
7 3 12 9 0
12 7 0
7 0
12 0
3 0
7 0
10 0
10 0
1 0
10 1 0
10 -1 0
10 0
10 1 0
10 -1 0
10 0
1 0
7 0
7 0
7 0
7 0
7 0
7 0
7 0
7 0
13 0
1 0
4 0
4 0
4 0
4 0
4 0
4 0
4 0
4 0
4 0
4 0
10 0
10 0
10 0
7 0
7 0
7 0
7 0
7 0
7 0
7 0
1 4 0
-1 4 0
4 0
1 0
2 8 0
16 10 0
7 16 0
16 0
10 0
10 16 0
16 2 0
2 8 16 0
16 0
7 0
16 0
16 7 0
2 8 0
10 16 0
16 0
16 2 0
7 16 0
16 0
16 7 0
10 0
16 0
2 8 16 0
16 10 0
7 0
16 0
16 0
16 0
10 0
7 0
2 0
10 16 0
16 10 0
2 8 16 0
2 8 0
7 0
16 7 0
7 16 0
16 2 0
16 0
16 0
16 0
10 0
16 0
16 0
7 0
16 0
2 0
10 0
4 0
3 0
4 3 0
4 3 9 0
3 9 0
4 0
4 0
3 0
3 0
4 0
3 0
4 0
3 9 0
4 3 0
4 3 9 0
4 0
3 0
4 0
4 0
4 3 9 0
4 0
4 3 0
3 0
3 0
3 9 0
4 0
4 0
3 9 0
4 3 0
3 0
3 0
4 3 9 0
4 0
4 0
3 0
4 0
5 14 6 0
6 15 0
5 0
6 0
5 14 0
6 15 5 0
6 0
5 0
1 0
13 -1 0
13 -1 0
13 0
13 0
1 0
1 4 0
-1 4 0
4 0
2 -8 0
2 8 1 0
2 8 -1 0
2 0
1 0
1 0
5 0
5 14 0
6 15 5 0
6 0
5 14 6 0
6 15 0
5 0
6 0
10 0
10 0
10 0
10 0
10 0
10 0
10 0
10 0
10 0
10 0
10 0
10 0
10 0
3 -9 0
3 9 0
3 0
3 9 1 0
3 9 0
3 0
3 9 -1 0
3 0
10 1 0
10 -1 0
10 0
1 0
13 0
13 0
13 0
13 0
13 0
4 0
4 0
16 1 0
16 -1 0
16 0
1 0
-8 2 0
2 8 1 0
2 8 -1 0
2 0
1 0
10 -1 0
10 -1 0
10 0
10 0
4 1 0
4 -1 0
4 0
1 0
10 0
10 0
10 0
10 0
10 0
10 0
10 0
10 0
10 0
10 0
10 0
10 0
10 0
10 0
10 0
10 0
10 0
10 0
6 15 0
6 0
5 0
5 14 0
5 0
6 0
1 0
13 0
13 0
13 1 0
13 0
13 0
13 -1 0
13 0
7 1 0
7 -1 0
7 0
4 0
4 0
4 0
4 0
4 0
4 0
4 0
4 0
4 0
4 0
10 0
10 0
4 0
4 0
10 0
10 0
4 0
4 0
10 0
2 -8 0
2 8 1 0
2 8 -1 0
2 0
1 4 0
-1 4 0
4 0
7 0
7 0
3 0
2 0
3 9 2 0
3 9 0
2 8 0
3 0
2 8 3 0
2 0
3 9 2 0
3 0
3 9 0
2 8 3 0
2 8 0
2 0
2 8 3 0
2 8 0
3 9 2 0
3 0
2 0
3 9 0
3 9 2 0
3 9 0
3 0
2 0
2 8 0
2 8 3 0
2 8 0
2 0
3 0
3 9 0
3 0
2 0
5 0
6 0
6 15 5 0
6 15 0
5 14 0
5 14 6 0
6 0
5 0
16 1 0
16 -1 0
16 0
6 0
5 14 0
5 14 6 0
6 15 5 0
6 15 0
5 0
6 0
5 0
1 0
13 1 0
13 -1 0
13 0
1 10 0
-1 10 0
10 0
2 0
16 0
16 0
2 0
2 8 0
16 0
2 0
16 0
16 0
2 8 0
2 0
2 8 0
16 0
16 0
2 8 0
16 0
16 0
2 0
16 0
2 0
1 0
12 0
3 0
7 0
7 3 12 9 0
7 0
7 3 9 0
7 0
12 7 0
12 0
7 0
3 0
3 0
3 9 0
12 3 0
12 0
7 3 12 0
7 12 0
7 3 0
3 12 9 0
12 0
3 0
7 3 0
3 9 0
12 0
7 12 0
7 3 12 0
12 7 0
3 12 9 0
7 0
7 3 9 0
7 0
3 0
12 0
12 3 0
7 0
12 0
7 3 12 9 0
7 12 0
7 3 0
7 0
12 7 0
7 0
7 3 12 0
12 0
3 9 0
7 0
12 0
7 3 12 9 0
12 3 0
12 0
3 0
3 0
3 12 9 0
7 3 9 0
3 9 0
12 3 0
3 0
7 0
12 0
12 0
7 3 12 9 0
12 0
7 3 0
7 3 12 0
7 12 0
3 12 9 0
12 7 0
3 0
7 0
7 3 9 0
7 0
7 0
12 0
3 0
1 0
13 1 0
-1 13 0
13 0
10 1 0
10 -1 0
10 0
10 1 0
10 -1 0
10 0
1 0
10 0
10 7 0
10 0
7 0
7 0
7 10 0
7 0
10 7 0
7 10 0
10 0
7 0
10 0
10 0
7 0
7 0
7 10 0
10 7 0
10 0
7 0
10 7 0
7 0
10 0
7 10 0
10 0
5 14 6 0
5 14 6 0
7 0
6 15 5 0
5 14 0
-14 5 0
5 14 0
7 0
5 14 0
5 14 6 0
5 14 6 0
3 9 0
5 14 6 0
5 14 6 0
6 15 0
6 15 0
6 15 0
12 0
5 0
6 15 0
6 15 5 0
6 15 5 0
6 15 0
5 14 0
7 3 9 0
6 15 0
5 14 6 0
6 15 5 0
7 12 0
5 14 0
5 14 6 0
5 14 6 0
7 0
5 14 0
6 15 5 0
6 15 0
5 14 0
12 0
3 0
5 14 6 0
6 15 0
6 15 5 0
5 14 0
7 3 12 0
-14 5 0
7 12 0
6 15 0
6 15 5 0
7 3 0
5 14 6 0
6 15 0
6 15 5 0
5 14 0
5 14 6 0
7 3 12 9 0
7 0
6 15 5 0
5 14 0
5 14 0
3 0
6 15 5 0
6 15 5 0
12 0
6 15 0
6 15 0
6 15 5 0
12 0
3 0
5 14 0
6 15 5 0
3 12 9 0
5 14 6 0
5 14 0
5 14 0
3 12 0
6 15 0
5 14 0
6 15 0
6 15 5 0
5 14 6 0
12 0
12 0
5 14 0
6 15 0
5 14 0
-14 5 0
6 15 5 0
6 15 5 0
6 15 0
7 3 12 0
5 14 6 0
12 0
5 14 6 0
5 14 6 0
6 15 5 0
7 0
6 15 0
6 15 5 0
3 9 0
5 14 6 0
5 14 0
6 15 5 0
7 3 9 0
6 15 5 0
12 0
7 0
5 14 0
6 15 5 0
5 14 6 0
5 14 6 0
6 15 5 0
5 14 0
5 14 6 0
6 15 0
6 15 0
5 14 0
6 15 0
3 0
6 15 5 0
7 12 0
5 14 0
6 15 5 0
6 15 0
3 0
6 15 5 0
5 14 6 0
6 15 0
-14 5 0
6 15 0
5 14 0
5 14 6 0
3 12 9 0
6 15 5 0
7 3 0
5 14 0
6 15 5 0
7 3 12 9 0
7 0
5 14 6 0
5 14 6 0
6 15 0
6 15 5 0
7 0
6 15 0
5 14 0
5 14 0
5 14 6 0
3 0
5 0
5 14 0
5 14 0
5 14 6 0
6 15 0
7 12 0
5 14 0
5 14 6 0
6 15 0
6 15 0
3 12 0
5 14 0
5 0
5 0
6 0
5 0
6 0
6 0
6 0
5 0
5 0
6 0
5 0
-14 5 0
12 0
6 0
6 0
5 0
5 0
5 0
6 0
6 0
5 0
6 0
5 0
6 0
6 0
3 0
5 0
5 0
5 0
7 0
6 0
5 0
6 0
5 14 6 0
12 0
6 15 5 0
6 15 0
5 14 6 0
7 3 12 0
6 15 5 0
5 14 6 0
5 14 6 0
5 14 0
3 0
6 15 5 0
5 14 0
7 12 0
6 15 5 0
6 15 0
5 14 0
5 0
5 14 0
5 14 6 0
6 15 0
5 14 6 0
5 14 0
12 0
6 15 0
5 14 6 0
5 14 6 0
5 14 6 0
6 15 5 0
7 3 9 0
6 15 5 0
6 0
6 15 5 0
-14 5 0
5 14 6 0
5 14 0
12 0
6 15 0
5 14 6 0
3 9 0
6 15 5 0
6 15 0
7 3 0
6 15 0
6 15 5 0
6 15 5 0
7 0
6 15 0
7 0
6 15 0
7 12 0
5 14 0
6 15 5 0
5 14 0
5 14 0
-14 5 0
3 12 0
3 0
5 14 0
5 14 0
5 14 6 0
5 14 0
12 0
6 15 5 0
5 14 0
5 14 6 0
3 0
3 12 9 0
5 14 0
6 15 0
6 15 5 0
6 15 0
6 15 5 0
6 15 0
7 3 12 9 0
7 0
6 15 0
5 0
6 15 0
7 0
6 15 0
5 14 6 0
5 14 0
5 14 0
5 0
3 0
6 0
5 0
5 0
5 0
5 0
5 0
6 0
-14 5 0
6 0
6 0
6 0
6 0
6 0
5 0
5 0
6 0
5 0
12 0
6 0
5 0
5 0
6 0
5 0
6 0
7 0
6 0
6 0
5 0
5 0
6 0
6 0
5 0
5 0
1 0
1 0
5 0
6 15 5 0
5 14 0
6 15 0
6 0
5 14 6 0
6 0
6 15 0
5 0
5 14 6 0
5 14 0
6 15 5 0
5 0
5 14 0
6 0
6 15 0
5 14 6 0
6 15 5 0
5 0
6 15 5 0
6 0
5 14 0
6 15 0
5 14 6 0
4 0
4 0
4 0
4 0
4 0
4 0
4 0
4 0
4 0
2 0
3 0
2 8 3 0
3 9 0
2 8 0
3 9 2 0
3 0
2 0
3 9 2 0
3 9 0
2 0
3 0
2 8 0
2 8 3 0
3 9 2 0
3 9 0
3 0
2 0
2 8 3 0
2 8 0
3 9 0
2 8 0
3 9 2 0
2 8 3 0
2 0
3 0
3 0
2 8 0
2 0
3 9 0
2 0
3 0
1 10 0
-1 10 0
10 0
10 1 0
10 -1 0
10 0
1 0
3 0
3 0
3 9 0
3 0
7 0
7 0
7 0
7 0
7 0
7 0
7 0
7 0
7 0
7 0
6 15 5 0
6 0
5 0
5 14 6 0
6 15 0
5 14 0
6 15 5 0
5 0
5 14 6 0
6 15 0
5 14 0
6 0
5 0
5 14 6 0
6 15 0
6 15 5 0
5 14 0
6 0
6 0
5 0
6 15 5 0
6 15 0
5 14 6 0
5 14 0
1 0
10 0
10 0
10 0
10 0
6 0
5 14 0
6 15 0
5 0
6 15 5 0
5 14 6 0
5 0
6 0
7 0
7 0
7 0
7 0
2 0
3 0
2 0
2 0
3 9 0
2 8 0
2 0
3 0
3 0
2 0
3 0
3 9 0
2 0
2 0
3 0
2 8 0
2 0
2 0
2 0
3 0
2 8 0
3 0
3 9 0
3 9 0
2 0
2 0
3 0
2 8 0
2 0
3 0
10 0
10 0
1 0
1 0
1 13 0
1 4 0
-1 13 0
-1 4 0
13 0
4 0
6 15 0
5 14 0
5 0
6 15 5 0
5 14 6 0
6 0
5 0
6 0
10 1 0
10 -1 0
10 0
1 0
1 0
7 0
7 10 0
10 0
10 0
7 0
10 7 0
10 7 0
10 0
7 0
10 0
7 10 0
7 0
7 0
10 7 0
10 0
10 0
7 0
7 10 0
10 0
10 0
10 7 0
7 0
7 10 0
7 0
10 0
7 0
3 0
2 0
3 9 2 0
2 0
3 9 0
2 8 0
3 0
2 8 3 0
3 9 2 0
2 8 0
2 8 3 0
3 0
3 9 0
2 0
2 8 3 0
3 0
3 9 2 0
2 8 0
3 9 0
2 0
2 0
3 0
3 0
7 0
2 0
12 0
2 8 0
3 0
12 7 0
7 0
7 0
7 3 9 0
12 0
3 0
7 3 12 9 0
7 0
12 0
3 9 0
12 3 0
2 0
3 12 9 0
7 3 0
7 3 12 0
7 12 0
12 0
12 7 0
7 0
12 0
3 0
12 0
3 12 9 0
2 8 0
7 12 0
3 9 0
7 0
7 3 9 0
7 3 12 9 0
2 0
7 3 0
7 0
3 0
7 3 12 0
12 0
12 3 0
3 0
3 9 0
3 12 9 0
3 0
7 3 12 0
12 0
7 3 12 9 0
7 0
7 3 9 0
12 0
2 0
2 8 0
7 0
12 3 0
12 7 0
7 0
7 3 0
12 0
7 12 0
7 0
7 3 0
12 7 0
3 9 0
7 0
3 0
3 12 9 0
12 0
7 3 12 0
3 0
7 0
7 3 9 0
12 0
7 12 0
2 8 0
12 3 0
7 3 12 9 0
2 0
12 0
3 0
2 0
12 0
7 0
7 10 0
10 7 0
10 0
7 0
10 0
7 0
7 0
10 7 0
7 10 0
10 0
7 0
10 0
10 7 0
7 0
10 0
7 0
10 0
7 10 0
7 0
7 0
10 0
10 7 0
10 0
7 10 0
10 0
7 0
1 0
-8 2 0
-8 2 0
4 0
4 0
4 0
4 0
10 1 0
10 -1 0
10 0
7 0
7 0
7 0
7 0
13 0
13 0
13 0
13 0
13 0
13 0
13 0
13 0
13 0
6 0
5 14 6 0
6 15 5 0
6 15 0
5 14 0
5 0
5 0
6 0
1 0
1 0
4 -1 0
4 -1 0
13 -1 0
13 4 -1 0
13 -1 0
-1 4 13 0
4 13 0
4 0
4 0
13 4 0
13 0
13 0
4 0
4 0
4 0
4 0
4 0
4 0
4 0
4 0
4 0
13 0
13 0
13 0
13 0
13 0
13 0
13 0
13 0
13 0
13 0
1 0
1 0
10 0
10 0
10 0
10 0
7 0
7 0
7 0
7 0
7 0
7 0
7 -1 0
7 0
7 0
7 0
7 0
-8 13 0
13 0
2 13 0
-8 13 0
13 0
2 13 0
1 0
4 -1 0
-1 4 0
4 0
1 0
4 0
1 0
1 0
7 0
7 0
7 0
7 0
7 0
7 0
7 0
7 0
1 4 0
-1 4 0
4 0
3 0
2 0
2 8 0
2 0
3 9 0
3 0
3 9 2 0
2 8 3 0
3 9 2 0
2 8 3 0
3 9 0
2 8 0
2 0
3 0
3 9 2 0
2 0
3 9 0
2 8 0
3 0
2 8 3 0
3 0
2 8 3 0
2 8 0
3 9 2 0
3 9 0
2 0
2 8 0
3 9 0
2 0
3 0
3 0
2 0
1 0
-1 13 0
13 0
1 0
3 9 0
2 4 8 0
3 9 0
2 0
4 0
3 0
2 0
4 0
3 0
2 8 0
3 9 0
2 8 0
4 0
3 0
2 4 8 0
2 0
4 2 0
2 4 8 0
4 0
4 0
4 2 0
4 0
4 2 0
2 8 0
3 0
2 4 8 0
2 0
4 0
3 9 0
4 0
4 0
4 2 0
2 4 8 0
3 9 0
4 2 0
2 0
4 0
2 4 8 0
3 9 0
2 8 0
2 8 0
4 0
2 8 0
2 0
3 0
4 2 0
4 0
3 0
4 0
3 0
3 0
2 0
4 0
3 0
2 0
2 0
4 0
3 9 0
4 2 0
3 0
2 8 0
2 8 0
4 2 0
2 0
4 0
4 0
2 4 8 0
4 2 0
2 4 8 0
4 0
2 8 0
2 0
3 0
3 0
2 4 8 0
4 0
3 9 0
3 9 0
3 0
3 9 0
2 0
4 0
4 0
2 0
4 0
3 0
4 0
2 0
2 0
3 0
4 0
3 0
3 0
2 0
3 0
2 8 0
2 8 3 0
3 9 0
3 0
3 9 2 0
2 0
2 8 0
3 9 2 0
2 0
2 8 3 0
3 9 0
3 0
2 8 0
3 9 0
2 8 3 0
3 9 2 0
2 0
3 0
2 8 0
3 0
3 9 0
2 8 3 0
2 0
3 9 2 0
3 9 0
3 0
2 0
2 8 0
3 0
2 0
1 0
4 0
4 0
4 0
4 0
4 0
4 0
4 0
4 0
4 0
4 0
4 0
4 0
4 0
4 0
4 0
4 0
4 0
4 0
4 1 0
4 -1 0
4 0
5 0
6 0
6 15 0
6 15 5 0
5 14 0
5 14 6 0
6 0
5 0
16 1 0
16 -1 0
16 0
16 0
16 0
3 9 0
16 0
16 0
16 0
3 0
16 0
3 9 0
10 0
10 0
10 0
10 0
1 0
4 0
4 0
4 0
4 0
4 0
4 0
4 0
4 0
4 0
16 1 0
16 -1 0
16 0
10 0
10 0
10 0
10 0
10 0
10 0
10 0
10 0
10 0
10 0
10 -1 0
10 0
10 1 0
10 -1 0
10 0
13 0
13 0
13 0
13 0
13 0
13 0
13 0
13 0
13 0
2 0
3 9 0
3 0
2 8 0
2 0
3 0
2 0
3 0
2 0
3 0
3 0
2 0
2 0
3 9 0
2 8 0
2 8 0
2 0
3 9 0
3 0
2 0
3 0
2 0
2 8 0
2 0
3 0
3 0
3 9 0
2 0
2 0
3 9 0
2 0
3 0
2 0
2 8 0
2 0
3 0
6 15 0
5 0
5 14 6 0
6 15 5 0
5 14 0
6 0
10 0
10 0
10 0
10 0
10 0
10 -1 0
10 0
1 0
13 -1 0
13 0
1 4 0
-1 4 0
4 0
16 1 0
16 -1 0
16 0
7 0
7 0
5 0
6 15 0
5 14 0
6 0
5 0
6 0
2 8 0
2 8 0
2 0
2 8 0
2 0
10 0
10 0
10 0
10 0
10 0
10 0
10 0
10 0
10 0
1 0
4 0
11 0
3 0
16 0
12 0
2 0
7 0
12 0
16 0
4 0
4 0
3 0
2 0
16 0
7 16 0
11 2 0
4 0
7 16 0
7 0
7 0
3 0
11 0
12 3 0
3 12 9 0
7 0
2 8 11 0
2 0
2 8 0
12 0
3 9 0
11 0
11 0
12 0
16 0
12 0
3 9 0
16 0
7 0
11 0
12 0
2 0
7 0
12 0
16 0
12 3 0
4 0
7 0
3 12 9 0
4 0
11 2 0
2 8 11 0
11 0
3 0
7 16 0
11 0
4 0
7 16 0
3 0
2 0
16 0
2 8 0
11 2 0
3 12 9 0
7 0
11 0
3 9 0
12 0
16 0
7 0
2 0
3 0
12 0
16 0
7 16 0
11 0
4 0
3 0
11 0
4 0
7 0
12 0
16 0
12 3 0
4 0
2 8 11 0
2 8 0
2 0
7 16 0
11 0
12 0
16 0
2 8 0
2 0
11 0
11 0
3 0
12 0
12 3 0
7 0
7 0
3 0
3 12 9 0
7 16 0
16 0
7 16 0
3 9 0
4 0
12 0
16 0
2 8 11 0
2 0
4 0
4 0
11 2 0
7 0
-6 -14 5 0
-14 -15 6 0
-14 5 -15 0
-5 -15 6 0
5 14 1 0
6 15 1 0
1 14 5 6 0
15 1 5 6 0
-1 14 5 6 0
5 14 -1 0
-1 15 5 6 0
6 15 -1 0
5 0
6 0
4 0
4 0
4 0
4 0
4 0
4 0
4 0
4 0
4 0
1 0
5 14 0
5 0
5 14 6 0
6 15 0
6 0
6 15 5 0
6 0
5 0
-8 2 0
2 8 1 0
2 8 -1 0
2 0
10 0
10 0
4 0
4 0
7 1 0
7 -1 0
7 0
4 1 0
4 -1 0
4 0
3 9 0
3 9 0
1 10 0
-1 10 0
10 0
7 1 0
7 -1 0
7 0
1 0
13 -1 0
13 -1 0
13 0
13 0
10 0
10 0
7 10 0
7 0
10 7 0
10 0
10 0
7 0
7 0
10 0
10 7 0
7 0
10 0
7 10 0
10 0
10 0
10 7 0
7 10 0
7 0
7 0
7 10 0
7 0
10 0
10 7 0
10 0
7 0
10 0
7 0
6 0
6 15 0
5 14 6 0
5 0
5 14 0
6 15 5 0
6 0
5 0
14 5 0
15 5 6 0
14 5 6 0
15 6 0
15 6 0
15 5 6 0
14 5 0
14 5 6 0
13 1 0
13 -1 0
13 0
1 0
1 0
-14 -7 5 0
7 1 14 5 0
7 1 5 0
5 14 1 0
7 1 0
-1 7 14 5 0
5 14 -1 0
7 -1 0
-1 7 5 0
7 0
5 0
1 0
1 0
2 -8 0
2 8 1 0
2 8 -1 0
2 0
13 0
13 0
13 0
13 0
4 1 0
4 -1 0
4 0
2 0
3 0
3 0
2 8 3 0
2 0
3 9 0
3 9 2 0
2 8 0
3 9 2 0
2 8 3 0
3 0
2 8 0
2 0
3 9 0
3 9 0
2 0
3 9 2 0
3 0
2 8 0
2 8 3 0
2 8 0
2 8 3 0
2 0
3 9 2 0
3 9 0
3 0
3 9 2 0
2 0
2 8 3 0
3 0
2 8 0
3 9 0
3 0
2 0
6 15 5 0
6 15 0
5 0
5 14 0
6 0
5 14 6 0
6 0
5 0
1 10 0
-1 10 0
10 0
7 0
7 0
7 0
7 0
12 0
2 0
7 0
3 0
12 3 0
7 0
12 0
7 12 0
7 0
7 0
7 3 9 0
3 12 9 0
3 0
7 3 12 9 0
2 8 0
12 7 0
3 0
12 0
3 9 0
2 0
7 3 12 0
12 0
7 3 0
12 0
7 3 0
7 3 9 0
3 12 9 0
7 0
7 3 12 9 0
2 8 0
12 3 0
3 9 0
12 7 0
3 0
2 0
7 0
7 3 12 0
12 0
7 12 0
7 0
3 0
12 0
2 8 0
3 0
3 0
7 0
12 7 0
7 3 12 0
7 12 0
3 9 0
7 0
12 0
7 3 0
12 0
2 0
7 3 12 9 0
12 3 0
3 12 9 0
7 3 9 0
7 0
12 0
7 3 12 0
7 3 9 0
3 12 9 0
12 3 0
7 3 12 9 0
7 3 0
12 0
12 0
3 0
12 0
7 12 0
2 8 0
12 7 0
7 0
7 0
3 0
7 0
2 0
3 9 0
3 0
2 0
7 0
12 0
1 0
13 0
13 0
13 0
4 0
13 0
13 0
4 0
4 0
13 0
13 4 0
13 4 0
13 0
13 0
3 9 0
4 0
13 0
4 0
4 0
13 0
4 0
13 0
4 0
4 0
4 0
13 0
13 0
13 0
13 0
13 0
4 0
4 0
13 0
13 0
4 0
13 0
13 0
13 0
4 0
4 0
4 0
13 0
13 4 0
4 0
4 0
13 0
13 0
4 0
13 0
13 0
4 0
13 0
4 0
13 4 0
13 0
13 0
13 0
4 0
4 0
13 0
4 0
13 0
4 0
4 0
13 4 0
13 4 0
4 0
13 0
13 0
13 0
4 0
13 4 0
4 0
13 0
13 0
13 4 0
4 0
3 0
13 0
13 0
13 0
13 4 0
4 0
13 0
13 0
13 0
13 4 0
4 0
4 0
4 0
4 0
4 0
13 4 0
4 3 0
4 3 9 0
4 0
4 0
13 0
13 4 0
13 0
13 4 0
13 4 0
13 0
13 0
13 0
13 0
13 4 0
4 0
13 0
4 0
4 0
4 0
13 0
13 0
13 0
13 0
4 0
4 0
13 0
13 0
4 0
13 0
4 0
13 4 0
4 0
13 0
13 0
4 0
13 0
13 0
4 0
3 9 0
13 4 0
13 4 0
13 0
4 0
13 0
4 0
4 0
13 0
4 0
4 0
13 0
13 0
4 0
13 0
4 0
4 3 9 0
13 0
4 0
13 4 0
13 0
4 0
13 0
13 4 0
4 0
4 0
13 0
13 0
13 0
13 0
4 0
4 0
13 0
13 0
13 0
13 0
13 0
13 0
4 0
13 0
13 0
13 0
4 0
13 0
13 0
13 0
13 4 0
13 0
4 0
13 0
13 4 0
4 0
13 0
13 0
4 0
4 0
13 4 0
13 0
13 0
4 0
13 4 0
4 0
4 0
13 0
13 0
13 0
13 0
13 0
4 0
4 0
4 0
4 0
4 0
13 0
4 0
4 0
13 0
13 0
13 4 0
13 4 0
4 0
13 4 0
13 0
4 0
4 0
13 0
13 0
4 0
3 0
4 0
13 0
13 4 0
13 4 0
13 4 0
4 0
13 0
4 3 0
13 0
4 0
4 0
13 0
13 0
13 0
13 4 0
13 0
4 0
13 0
13 4 0
4 0
13 0
4 0
13 4 0
13 0
13 0
13 0
4 0
13 0
4 0
13 0
13 0
13 0
4 0
13 4 0
4 0
13 0
13 0
13 0
13 0
13 0
13 0
13 0
4 0
13 0
13 0
4 0
4 0
13 4 0
13 0
4 0
13 0
4 3 9 0
13 0
13 0
4 0
4 0
13 0
13 0
13 0
13 0
13 4 0
13 0
13 0
4 0
13 0
3 9 0
4 0
13 4 0
13 0
4 0
4 0
13 0
4 0
4 0
13 0
4 0
13 0
13 0
4 0
13 4 0
13 0
13 0
13 4 0
4 0
4 0
3 0
13 0
4 0
4 0
4 3 0
4 0
13 4 0
4 0
4 0
4 0
13 4 0
13 0
13 0
13 0
13 0
13 0
13 0
4 0
13 0
4 0
13 0
13 4 0
13 4 0
13 0
13 4 0
13 0
13 0
4 0
4 0
4 0
13 0
4 0
4 0
4 0
13 0
4 0
13 4 0
4 0
4 0
10 1 0
-1 10 0
10 0
16 1 0
16 -1 0
16 0
10 0
4 0
4 0
4 0
4 0
1 0
13 -1 0
13 -1 0
13 0
13 0
10 1 0
10 -1 0
10 0
-8 2 0
2 8 1 0
2 8 -1 0
2 0
13 2 1 0
2 1 8 13 0
13 1 0
2 13 -1 0
13 -1 0
13 0
13 0
2 8 0
13 0
2 8 13 0
13 0
13 2 0
13 0
2 0
13 0
13 0
3 0
2 0
2 8 0
3 0
3 0
2 0
2 0
3 9 0
2 0
3 9 0
2 0
2 8 0
3 0
3 0
3 9 0
3 0
2 8 0
2 0
2 0
3 0
3 0
2 0
2 8 0
3 9 0
2 0
3 0
1 16 0
-1 16 0
16 0
7 1 0
7 -1 0
7 0
1 0
4 0
4 0
4 0
4 0
1 0
13 -1 0
13 -1 0
13 0
13 0
1 0
10 0
10 0
10 0
10 0
10 0
10 0
10 0
10 0
10 0
10 0
10 0
6 15 5 0
6 0
5 14 0
5 14 6 0
6 15 0
5 0
5 0
6 0
16 1 0
16 -1 0
16 0
16 1 0
16 -1 0
16 0
7 0
7 0
7 0
7 0
7 0
7 0
7 0
7 0
7 0
10 0
10 0
3 0
7 0
12 0
3 9 0
12 0
7 0
7 3 12 0
7 3 0
3 0
12 0
3 12 9 0
7 0
12 0
7 0
3 0
7 3 12 9 0
12 3 0
7 12 0
12 7 0
7 3 9 0
12 0
3 12 9 0
7 0
7 0
7 3 0
12 0
12 3 0
7 3 12 0
7 3 12 9 0
7 12 0
12 0
3 0
7 3 9 0
12 7 0
7 0
3 0
3 9 0
7 0
12 3 0
7 0
3 9 0
12 7 0
12 0
3 0
7 3 0
7 3 12 0
7 0
7 12 0
7 3 9 0
12 0
3 0
3 12 9 0
7 3 12 9 0
12 0
12 7 0
7 3 12 0
12 3 0
7 3 9 0
7 0
7 0
7 3 0
12 0
7 3 12 9 0
7 12 0
12 0
7 0
3 0
12 0
3 9 0
3 0
3 12 9 0
13 0
13 0
4 1 13 0
4 1 0
4 -1 13 0
4 -1 0
4 0
13 4 0
10 0
10 0
10 0
10 0
10 0
10 0
10 0
10 0
10 0
10 0
7 0
12 0
2 0
11 0
3 0
3 9 0
7 0
2 0
12 0
7 3 12 9 0
7 3 9 0
3 0
2 8 11 0
2 0
7 0
12 7 0
12 3 0
3 0
11 0
2 8 0
7 0
7 12 0
12 0
7 3 12 0
11 0
11 0
3 12 9 0
7 3 0
11 2 0
12 0
12 3 0
11 0
7 0
7 0
11 0
11 2 0
7 3 12 0
7 12 0
3 12 9 0
3 0
7 0
7 3 9 0
12 0
2 8 0
2 0
12 0
12 0
7 3 12 9 0
3 9 0
12 7 0
2 0
11 0
3 0
7 3 0
2 8 11 0
7 3 9 0
12 0
7 0
12 0
2 8 0
3 12 9 0
7 3 0
7 0
3 9 0
3 0
7 0
7 3 12 9 0
2 0
12 3 0
12 7 0
2 8 11 0
3 0
2 0
7 3 12 0
11 0
7 12 0
11 0
11 2 0
12 0
11 0
3 9 0
3 12 9 0
7 0
7 3 12 0
2 8 0
7 12 0
12 0
12 3 0
2 0
12 0
11 0
7 3 9 0
7 0
7 3 12 9 0
12 7 0
3 0
11 2 0
3 0
7 0
11 0
2 0
11 0
12 0
2 8 11 0
7 3 0
2 0
3 0
3 9 2 0
3 9 0
3 0
2 8 3 0
2 8 0
2 0
3 9 0
3 0
2 8 3 0
2 8 0
3 9 2 0
2 0
2 8 3 0
3 9 2 0
2 0
2 8 0
3 9 0
3 0
2 0
3 0
7 0
12 0
3 0
12 7 0
12 0
7 3 12 0
3 0
7 3 12 9 0
7 0
7 12 0
7 3 9 0
3 9 0
3 12 9 0
12 0
12 3 0
12 0
7 0
7 3 0
3 0
7 0
3 12 9 0
7 0
7 12 0
12 7 0
7 3 12 9 0
3 0
12 0
3 9 0
7 0
12 3 0
7 3 12 0
12 0
3 0
7 3 0
12 0
7 0
7 3 9 0
12 0
7 0
3 0
12 3 0
7 0
3 12 9 0
7 12 0
3 9 0
12 0
7 0
7 3 12 9 0
12 7 0
7 3 12 0
12 0
7 3 0
7 3 9 0
3 0
12 0
12 3 0
12 0
12 7 0
7 0
3 0
7 3 12 9 0
7 0
3 0
7 3 9 0
7 3 12 0
7 3 0
3 9 0
3 12 9 0
12 0
7 12 0
7 0
12 0
3 0
7 0
1 0
1 4 0
-1 4 0
4 0
1 4 0
-1 4 0
4 0
10 0
10 0
10 0
10 0
10 -1 0
10 0
10 0
7 10 0
7 0
10 7 0
7 0
10 0
7 0
10 7 0
10 0
7 0
7 10 0
10 0
10 7 0
10 0
7 0
10 0
7 10 0
7 0
10 0
10 0
7 10 0
10 7 0
7 0
7 0
10 0
7 0
4 1 0
4 -1 0
4 0
2 -16 -8 0
2 8 1 0
16 1 0
2 1 16 0
2 1 16 8 0
16 -1 0
-1 2 16 0
2 8 -1 0
-1 2 16 8 0
16 0
2 0
1 0
13 4 0
4 0
13 0
4 0
13 0
4 0
13 0
13 0
13 0
13 4 0
4 0
3 9 0
13 0
13 0
13 0
13 0
4 0
13 0
4 0
13 0
4 0
13 0
13 0
13 0
4 0
13 4 0
4 0
13 0
4 0
4 0
13 0
4 0
13 0
4 0
13 0
13 0
4 0
4 0
13 4 0
13 0
4 0
13 0
4 0
13 0
4 0
4 0
4 0
13 4 0
4 3 9 0
13 0
4 0
4 3 0
4 0
4 0
13 0
13 0
13 0
13 4 0
13 0
13 4 0
13 0
13 0
13 0
13 4 0
13 0
13 4 0
13 0
4 0
4 0
13 0
4 0
13 0
13 4 0
4 0
13 0
4 0
13 0
4 0
13 0
4 0
13 0
4 0
4 0
13 4 0
13 4 0
13 0
13 4 0
4 0
13 0
4 0
4 0
13 0
13 0
4 0
4 0
4 0
13 0
13 0
3 0
4 0
4 0
13 0
13 4 0
13 0
13 0
13 0
13 0
13 0
13 0
4 0
4 0
13 0
13 4 0
13 0
4 0
4 0
13 0
13 0
13 0
13 0
4 0
13 0
4 0
13 0
13 4 0
4 0
4 3 9 0
13 0
13 0
4 0
13 0
13 0
4 0
4 0
4 0
13 4 0
4 0
4 0
13 0
13 4 0
4 0
13 0
13 0
13 0
4 0
4 3 0
4 0
13 0
13 0
4 0
4 0
13 4 0
4 0
4 0
13 0
13 4 0
13 4 0
13 4 0
4 0
13 0
13 4 0
4 0
13 0
4 0
13 0
4 0
13 0
4 0
4 0
4 0
13 0
13 0
13 0
4 0
13 0
13 0
13 0
13 0
13 4 0
13 4 0
4 0
4 0
13 0
3 9 0
13 0
3 0
13 0
4 0
13 0
4 0
4 0
13 4 0
4 0
13 0
13 0
13 0
4 0
13 0
13 0
13 0
13 0
13 4 0
13 4 0
13 0
4 0
13 0
4 0
13 0
13 0
13 0
13 4 0
13 0
4 0
13 0
4 0
4 0
4 0
13 0
4 0
13 4 0
4 0
13 0
13 0
13 0
13 0
13 0
4 0
13 0
13 0
4 0
4 0
4 0
13 4 0
13 0
13 0
13 0
13 0
4 0
4 0
13 0
13 0
13 0
13 0
4 0
13 0
13 0
13 0
4 0
3 0
13 0
13 4 0
13 4 0
13 0
13 0
4 0
4 0
13 0
4 0
13 0
4 0
13 4 0
4 0
13 4 0
4 0
4 0
4 0
3 9 0
4 0
4 0
13 4 0
4 0
13 0
13 0
13 4 0
13 0
4 0
13 0
13 4 0
13 0
4 3 0
4 0
13 0
4 0
13 4 0
13 0
13 4 0
4 0
13 0
13 0
13 0
13 4 0
13 0
13 4 0
4 0
13 0
13 0
13 4 0
13 0
4 0
4 3 9 0
4 0
4 0
4 0
13 0
4 0
13 0
4 0
4 0
13 0
13 4 0
13 0
13 0
13 0
4 0
13 0
13 0
13 0
4 0
4 0
13 0
13 0
13 0
4 0
13 0
4 0
13 0
13 0
4 0
13 4 0
13 0
4 0
4 0
4 0
13 0
13 0
13 0
13 0
4 0
4 0
13 0
13 0
4 0
13 0
10 7 0
7 10 0
10 0
10 0
7 0
7 0
10 7 0
7 0
7 10 0
10 0
10 0
7 0
7 10 0
7 0
10 7 0
7 0
10 0
10 0
7 10 0
7 0
7 0
10 0
10 7 0
10 0
10 0
7 0
2 8 0
2 8 13 0
13 0
13 2 0
2 8 0
13 0
13 2 0
2 8 13 0
2 8 0
13 0
13 2 0
2 8 13 0
1 13 0
-1 13 0
13 0
2 0
3 0
3 0
2 0
2 8 0
3 9 0
2 0
3 0
3 9 0
2 8 0
3 0
2 0
2 8 0
3 9 0
2 8 0
3 0
2 0
3 9 0
3 0
2 0
4 1 0
4 -1 0
4 0
6 0
6 15 5 0
5 14 0
6 15 0
5 14 6 0
5 0
5 0
6 0
-7 -9 3 0
14 5 0
7 0
7 5 0
5 0
2 8 0
7 14 5 0
2 0
7 0
3 9 0
7 0
7 0
3 0
5 0
7 0
2 0
7 14 5 0
5 0
7 0
5 0
2 0
7 0
2 8 0
7 0
3 9 0
7 5 0
2 0
7 0
14 5 0
3 0
7 0
7 0
7 0
3 0
3 9 0
3 9 0
7 0
5 0
3 0
7 0
7 0
7 0
14 5 0
5 0
2 0
7 0
2 0
7 5 0
2 8 0
7 14 5 0
7 0
3 0
4 0
4 0
4 0
3 0
3 0
3 9 0
4 0
4 0
4 0
3 9 0
4 0
4 0
4 0
3 0
3 0
4 0
4 0
3 9 0
4 0
3 9 0
4 0
4 0
3 0
4 0
3 0
4 0
6 15 0
6 0
6 15 5 0
5 0
5 14 6 0
5 14 0
5 14 6 0
5 14 0
6 15 0
6 0
6 15 5 0
5 0
5 14 6 0
6 15 0
5 14 0
6 15 5 0
6 0
5 0
5 14 6 0
5 0
5 14 0
6 15 5 0
6 0
6 15 0
4 0
4 0
2 0
3 0
12 0
11 0
7 0
7 3 12 0
3 0
7 3 0
7 3 12 9 0
3 0
11 0
7 0
11 0
12 3 0
12 0
3 12 9 0
12 7 0
11 0
2 8 11 0
2 0
12 0
2 8 0
7 12 0
3 9 0
7 0
7 0
2 0
11 2 0
7 3 9 0
12 0
12 0
12 0
2 8 11 0
7 0
7 3 9 0
2 0
7 12 0
3 0
7 0
11 0
7 3 12 9 0
7 0
7 3 0
3 9 0
11 2 0
3 0
7 3 12 0
11 0
2 8 0
2 0
11 0
12 7 0
12 3 0
3 12 9 0
12 0
2 8 0
11 2 0
7 0
3 12 9 0
11 0
3 0
12 0
7 3 0
7 0
7 3 12 0
7 3 9 0
11 0
12 7 0
7 12 0
3 9 0
12 0
7 0
11 0
3 0
2 0
7 3 12 9 0
2 8 11 0
12 0
12 3 0
2 0
7 3 9 0
2 8 11 0
7 3 12 0
12 0
2 0
7 12 0
12 0
2 8 0
7 3 12 9 0
12 3 0
3 12 9 0
7 0
11 2 0
11 0
12 7 0
7 0
7 3 0
3 0
7 0
3 0
3 9 0
2 0
11 0
12 0
11 0
1 0
-8 2 0
2 8 1 0
2 8 -1 0
2 0
4 0
4 0
4 0
4 0
4 0
4 0
1 0
-1 4 0
4 0
12 0
2 0
3 0
7 0
11 0
2 0
7 0
3 0
2 8 0
2 8 11 0
7 3 12 9 0
12 0
3 12 9 0
7 3 12 0
3 0
7 12 0
7 3 9 0
11 0
11 2 0
7 3 0
12 7 0
12 0
12 3 0
11 0
11 0
12 0
3 9 0
7 0
2 0
7 0
12 3 0
2 8 0
3 0
12 0
11 0
3 12 9 0
12 0
11 0
7 3 9 0
7 3 12 0
7 3 12 9 0
7 0
11 0
2 0
11 2 0
3 0
12 7 0
12 0
2 0
7 12 0
7 0
2 8 11 0
3 9 0
7 0
7 3 0
12 7 0
7 3 12 0
12 0
11 0
3 0
12 0
11 2 0
2 0
3 0
2 0
7 3 9 0
2 8 11 0
7 12 0
11 0
12 0
12 3 0
7 0
3 9 0
7 3 12 9 0
7 3 0
7 0
3 12 9 0
7 0
11 0
2 8 0
7 0
11 0
7 3 12 0
7 3 0
2 8 0
11 0
12 3 0
7 3 9 0
12 0
11 0
2 0
7 3 12 9 0
12 0
7 0
2 0
7 12 0
11 2 0
3 9 0
2 8 11 0
12 0
3 12 9 0
7 0
3 0
3 0
12 7 0
-8 0
2 0
13 0
-8 0
2 0
13 0
2 -8 0
2 8 1 0
2 8 -1 0
2 0
10 0
10 0
10 0
10 0
10 0
10 0
10 0
10 0
10 0
10 0
6 0
5 0
6 15 0
6 15 5 0
5 14 6 0
5 14 0
5 0
6 0
3 0
2 0
3 9 2 0
2 8 0
3 9 0
2 8 3 0
3 0
2 0
2 0
2 8 3 0
3 9 2 0
3 0
3 9 0
2 8 0
2 8 0
3 9 2 0
2 0
3 0
2 8 3 0
3 9 0
3 9 0
2 8 0
3 9 2 0
2 8 3 0
2 0
3 0
3 9 0
3 0
2 8 0
2 0
2 0
3 0
1 0
10 7 1 0
10 1 0
7 1 10 0
7 1 0
-1 7 10 0
10 7 -1 0
10 -1 0
7 -1 0
10 0
7 0
1 4 0
-1 4 0
4 0
3 0
3 9 0
3 0
3 0
3 9 0
3 0
3 9 0
3 0
3 9 0
5 0
5 14 0
6 0
6 15 5 0
5 14 6 0
6 15 0
6 0
5 0
4 0
13 0
4 0
4 0
4 0
13 0
13 0
13 0
13 0
4 0
4 0
13 0
13 0
4 0
13 0
4 0
1 4 0
-1 4 0
4 0
1 4 0
-1 4 0
4 0
2 -13 -8 0
13 2 1 0
2 8 1 0
2 1 8 13 0
13 1 0
-1 2 8 13 0
13 2 -1 0
2 8 -1 0
13 -1 0
13 0
2 0
1 -8 0
1 2 0
1 13 0
-1 -8 0
-1 2 0
-1 13 0
-8 0
2 0
13 0
1 0
4 1 0
4 -1 0
4 0
2 0
12 0
7 0
11 0
3 0
3 12 9 0
3 0
11 0
2 8 0
11 0
11 0
12 0
12 0
2 8 11 0
7 3 12 0
7 3 12 9 0
7 3 0
2 0
2 0
12 0
7 0
11 2 0
3 9 0
7 0
7 3 9 0
12 7 0
7 0
12 3 0
3 0
7 12 0
3 0
11 0
7 3 0
7 3 12 0
2 8 11 0
11 0
7 0
7 0
2 0
12 0
12 3 0
2 8 0
11 2 0
7 0
7 3 9 0
3 12 9 0
12 0
3 9 0
12 0
2 0
7 12 0
7 3 12 9 0
3 0
11 0
12 7 0
2 0
7 3 12 9 0
7 12 0
3 12 9 0
7 0
7 3 0
2 8 0
7 0
12 7 0
3 9 0
3 0
11 0
12 0
7 0
12 0
12 0
3 0
12 3 0
11 0
2 0
7 3 12 0
7 3 9 0
2 8 11 0
11 0
11 2 0
3 0
12 7 0
11 0
3 9 0
7 0
11 2 0
3 12 9 0
12 0
12 0
7 3 12 0
11 0
7 3 0
7 3 12 9 0
7 0
2 0
12 3 0
7 12 0
2 0
12 0
3 0
2 8 0
11 0
2 8 11 0
7 0
7 3 9 0
2 -8 0
2 8 1 0
2 8 -1 0
2 0
10 0
10 0
10 0
10 0
10 0
10 0
10 0
10 0
2 0
3 0
2 8 0
3 9 0
3 0
2 0
2 0
3 9 0
3 0
2 8 0
3 9 0
2 0
2 8 0
3 0
3 9 0
2 0
2 8 0
3 0
3 0
2 0
1 0
7 0
5 14 6 0
4 0
4 0
4 0
6 15 5 0
5 14 6 0
7 0
2 7 0
7 0
5 14 6 0
7 10 0
5 14 0
4 0
5 14 0
6 15 5 0
7 0
7 0
6 15 0
5 14 6 0
4 0
14 5 6 0
2 0
5 14 0
7 0
7 0
7 0
4 0
7 0
5 14 0
2 8 3 0
5 14 6 0
6 0
2 7 8 0
7 0
7 0
7 0
4 0
7 0
7 10 0
16 0
10 0
4 0
6 15 5 0
4 0
5 14 6 0
5 14 0
6 15 5 0
4 0
5 14 0
5 14 0
2 0
10 0
5 14 6 0
3 9 0
6 15 5 0
6 15 5 0
5 14 6 0
4 0
7 0
7 0
6 15 5 0
6 15 0
4 0
5 14 0
6 15 5 0
6 15 0
6 15 5 0
3 9 0
6 15 0
7 0
4 0
6 15 5 0
6 15 0
7 0
10 0
5 14 0
5 14 6 0
10 7 0
13 4 0
10 0
7 10 0
2 8 0
7 0
7 0
7 0
5 14 0
6 15 0
5 14 6 0
6 15 0
6 15 0
10 0
10 0
7 0
6 15 0
5 14 0
6 15 5 0
13 0
6 15 0
6 15 0
5 14 0
2 8 0
4 0
7 0
7 0
5 14 6 0
7 0
6 15 0
5 0
6 15 5 0
10 0
6 15 0
7 0
6 15 0
7 0
3 9 2 0
6 15 5 0
2 8 0
4 0
4 0
5 14 0
7 0
7 0
5 14 6 0
1 0
6 15 0
7 0
3 0
2 0
16 0
7 0
10 7 0
2 0
4 0
4 0
4 0
15 5 6 0
4 0
13 0
10 0
4 0
4 0
5 14 6 0
10 0
4 0
16 0
5 14 6 0
4 0
4 0
5 14 0
4 0
10 7 0
6 15 5 0
5 14 0
2 0
16 0
2 0
16 0
2 8 0
16 0
2 8 0
16 0
16 0
2 0
2 0
16 0
16 0
2 8 0
2 8 0
16 0
16 0
2 0
2 8 0
16 0
16 0
2 0
2 8 0
16 0
2 0
16 0
16 0
2 0
1 0
-1 7 10 0
7 -1 0
10 7 -1 0
10 -1 0
7 0
10 0
10 7 0
7 10 0
2 0
2 8 0
2 8 0
2 8 0
-8 2 0
-8 2 0
5 0
6 0
6 0
5 0
6 15 5 0
6 15 0
5 14 6 0
5 14 0
5 14 6 0
5 14 0
6 15 0
6 15 5 0
5 0
6 0
6 15 5 0
5 14 0
5 14 6 0
6 15 0
5 0
6 0
6 0
5 14 6 0
5 0
5 14 0
6 15 0
6 15 5 0
10 0
10 0
1 0
4 0
4 0
4 0
4 0
4 0
4 0
4 0
4 0
4 0
13 1 0
13 -1 0
13 0
3 0
2 0
2 8 0
2 0
3 9 0
3 9 2 0
2 8 3 0
3 0
3 0
3 9 0
2 0
2 8 3 0
3 9 2 0
2 8 0
2 0
3 9 0
2 8 0
2 8 3 0
3 0
3 9 2 0
2 8 0
3 9 2 0
3 0
3 9 0
2 0
2 8 3 0
3 9 0
2 8 0
2 0
3 0
2 0
3 0
4 0
4 0
4 0
4 0
4 0
4 0
4 0
4 0
4 0
4 0
4 0
4 0
4 0
4 0
4 0
10 0
10 0
10 0
10 0
10 0
10 0
10 0
10 0
10 0
10 0
10 -1 0
10 0
10 0
10 0
10 0
10 0
10 0
10 0
10 0
10 0
10 0
4 0
4 0
4 0
4 0
4 0
4 0
4 0
4 0
4 0
1 0
4 0
10 0
4 0
10 0
10 4 0
4 0
10 0
10 4 0
4 0
10 0
4 0
10 0
10 4 0
10 0
4 0
10 0
4 0
10 0
4 0
10 4 0
4 0
10 0
16 1 0
16 -1 0
16 0
5 14 6 0
6 15 5 0
6 15 0
5 14 0
7 0
10 0
10 0
7 0
10 0
7 0
10 0
7 0
7 0
10 0
7 0
10 0
10 0
7 0
7 0
10 0
10 0
7 0
10 0
7 0
10 0
10 0
10 0
10 0
3 0
1 0
3 9 0
3 0
1 0
4 0
3 0
3 9 0
3 0
4 0
4 0
4 3 0
4 3 9 0
4 0
3 0
4 0
4 3 9 0
4 3 0
3 0
4 0
3 9 0
3 0
4 0
4 3 9 0
4 0
3 0
4 0
4 3 0
4 0
3 0
3 9 0
4 0
3 0
4 0
4 0
4 3 0
3 0
4 3 9 0
3 9 0
10 1 0
7 1 10 0
7 1 0
10 7 1 0
-1 7 10 0
7 -1 0
10 -1 0
10 7 -1 0
10 0
7 0
-6 -14 5 0
-5 -15 6 0
-14 5 -15 0
-14 -15 6 0
15 1 5 6 0
5 14 1 0
6 15 1 0
1 14 5 6 0
5 14 -1 0
6 15 -1 0
-1 14 5 6 0
-1 15 5 6 0
5 0
6 0
4 0
4 0
10 1 0
10 -1 0
10 0
1 0
1 0
1 0
1 0
3 0
2 0
2 0
2 8 3 0
3 9 0
3 9 2 0
3 0
2 8 0
3 9 0
3 9 2 0
2 8 3 0
3 0
2 8 0
2 0
2 8 3 0
2 8 0
3 9 0
3 9 2 0
3 0
2 0
3 9 2 0
2 8 0
2 0
2 8 3 0
3 0
3 9 0
2 8 0
2 0
3 9 0
3 0
2 0
3 0
10 0
10 0
10 0
10 0
10 0
10 0
1 0
-1 10 0
10 0
4 3 0
4 0
3 9 0
4 0
4 3 9 0
3 0
3 0
4 3 0
4 0
3 9 0
4 0
4 3 9 0
4 0
3 0
3 9 0
4 0
4 3 9 0
4 3 0
3 9 0
4 3 0
3 0
4 0
4 3 9 0
4 0
-8 2 0
2 8 1 0
2 8 -1 0
2 0
3 0
2 0
2 8 0
2 0
2 8 3 0
3 9 2 0
3 9 0
3 0
3 9 0
3 9 2 0
2 8 0
2 0
3 0
2 8 3 0
3 9 2 0
2 8 0
3 0
2 8 3 0
2 0
3 9 0
2 8 3 0
3 9 2 0
3 9 0
2 0
2 8 0
3 0
2 8 3 0
2 8 0
3 0
3 9 0
3 9 2 0
2 0
2 0
3 0
4 1 0
4 -1 0
4 0
1 0
7 -1 0
10 -1 0
-1 7 10 0
10 7 -1 0
10 7 0
10 0
7 10 0
7 0
4 1 0
4 -1 0
4 0
1 0
2 8 0
2 8 0
2 8 0
2 8 0
2 8 0
2 8 0
2 8 0
2 8 0
10 1 0
10 -1 0
10 0
1 0
10 0
10 0
10 0
10 0
10 0
10 0
10 0
10 0
10 0
10 0
10 0
10 0
10 0
10 0
10 0
10 0
10 0
10 0
1 0
1 0
1 0
1 0
4 1 0
4 -1 0
4 0
13 0
13 0
13 0
13 0
13 0
2 -16 -8 0
16 1 0
2 1 16 8 0
2 8 1 0
2 1 16 0
16 -1 0
-1 2 16 0
2 8 -1 0
-1 2 16 8 0
16 0
2 0
4 0
10 0
10 4 0
4 0
4 0
4 0
10 0
10 4 0
10 0
4 0
4 0
10 0
4 0
4 0
10 4 0
4 0
10 0
4 0
4 1 0
4 -1 0
4 0
16 0
16 0
16 0
16 0
1 0
1 0
10 1 0
-1 10 0
10 0
-14 5 -15 0
-14 -15 6 0
-6 -14 5 0
-5 -15 6 0
6 15 1 0
5 14 1 0
1 14 5 6 0
15 1 5 6 0
-1 15 5 6 0
6 15 -1 0
5 14 -1 0
-1 14 5 6 0
5 0
6 0
1 10 0
-1 10 0
10 0
1 0
1 0
4 0
10 0
4 0
10 0
4 0
4 0
4 0
10 0
4 0
10 0
4 0
4 0
2 -13 -4 -8 0
2 4 1 8 0
4 2 1 0
2 4 1 13 0
2 8 1 0
4 1 0
2 4 1 8 13 0
2 1 8 13 0
13 2 1 0
13 4 1 0
13 1 0
4 2 -1 0
-1 2 8 13 0
-1 2 4 13 0
13 2 -1 0
13 4 -1 0
4 -1 0
-1 2 4 8 0
13 -1 0
2 8 -1 0
-1 2 4 8 13 0
13 0
2 0
4 0
3 0
2 0
3 9 0
2 8 3 0
2 8 0
2 0
3 0
3 9 2 0
3 0
2 8 3 0
3 9 2 0
2 8 0
2 0
3 9 0
3 9 0
2 8 0
3 9 2 0
2 0
3 0
2 8 3 0
3 9 2 0
2 0
2 8 3 0
3 0
3 9 0
2 8 0
3 0
3 9 0
2 0
2 8 0
2 0
3 0
10 0
10 0
10 0
10 0
10 0
10 0
10 0
10 0
10 0
10 0
10 0
10 0
10 0
10 0
10 0
10 0
10 0
10 0
10 0
10 0
10 0
10 0
10 0
10 0
10 0
10 0
10 0
12 0
2 0
7 0
11 0
3 0
11 0
2 0
11 0
12 0
11 0
2 8 0
7 12 0
7 3 12 0
7 0
3 9 0
7 3 12 9 0
3 12 9 0
7 3 9 0
12 0
12 3 0
2 8 11 0
2 0
3 0
11 2 0
12 0
12 7 0
7 0
3 0
7 0
7 3 0
7 3 12 9 0
3 9 0
7 3 9 0
12 0
7 12 0
12 0
12 7 0
7 0
3 0
2 8 11 0
2 0
11 0
2 8 0
7 0
12 0
3 0
2 0
3 12 9 0
11 0
7 3 12 0
12 3 0
7 3 0
11 0
11 2 0
7 0
12 7 0
12 0
7 3 12 0
7 0
7 0
12 0
2 8 11 0
2 0
2 8 0
11 0
11 0
7 3 12 9 0
11 2 0
12 3 0
7 3 0
7 0
7 12 0
3 0
2 0
7 3 9 0
11 0
12 0
3 0
3 9 0
3 12 9 0
7 12 0
3 9 0
7 0
11 0
12 0
11 0
7 3 9 0
12 0
2 0
2 8 0
7 3 0
3 0
7 3 12 9 0
7 0
3 12 9 0
11 0
7 3 12 0
11 2 0
2 8 11 0
2 0
12 3 0
7 0
3 0
12 7 0
12 0
16 0
16 0
16 0
16 0
16 0
16 0
16 0
16 0
16 0
16 0
5 14 0
5 14 6 0
6 15 0
5 0
6 0
6 15 5 0
5 0
6 0
1 0
1 0
12 0
3 0
7 0
7 0
12 7 0
3 0
7 0
12 3 0
7 3 0
12 0
7 3 12 9 0
12 0
7 12 0
7 3 12 0
3 9 0
7 3 9 0
7 0
3 12 9 0
3 0
12 0
12 0
12 3 0
3 9 0
7 0
7 0
3 0
12 0
12 7 0
3 12 9 0
3 0
7 3 12 9 0
7 0
7 3 9 0
7 3 0
7 3 12 0
7 12 0
12 0
7 3 12 9 0
7 12 0
3 9 0
3 0
12 0
3 12 9 0
7 0
7 0
7 3 12 0
7 3 0
12 0
3 0
12 0
7 3 9 0
7 0
12 7 0
12 3 0
12 0
3 0
7 3 0
12 3 0
12 0
12 0
7 12 0
7 0
3 9 0
3 0
12 7 0
7 0
7 3 12 0
7 3 9 0
7 3 12 9 0
7 0
3 12 9 0
12 0
3 0
7 0
13 0
13 0
-8 2 0
2 8 1 0
2 8 -1 0
2 0
1 4 0
-1 4 0
4 0
10 0
10 0
1 13 0
1 4 0
-1 13 0
-1 4 0
13 0
4 0
10 1 0
10 -1 0
10 0
7 0
7 0
5 0
5 14 6 0
6 15 5 0
6 0
5 14 0
6 15 0
3 0
2 0
2 8 3 0
2 4 8 0
2 8 0
4 0
2 0
3 9 2 0
2 4 0
3 0
3 9 0
3 0
2 8 0
2 0
4 0
4 0
2 0
3 9 0
3 0
3 9 0
2 4 0
3 9 0
4 0
4 0
2 8 0
2 8 0
2 0
2 0
2 8 3 0
2 0
4 0
3 0
2 4 8 0
3 9 2 0
2 8 3 0
3 0
3 9 2 0
2 0
3 9 0
2 8 0
2 4 0
2 0
4 0
3 9 0
2 0
4 0
2 0
2 8 0
2 4 8 0
4 0
3 9 0
3 0
2 8 0
3 0
3 0
2 0
10 0
10 0
12 0
3 0
7 0
7 3 9 0
3 9 0
12 0
12 3 0
7 12 0
7 0
7 3 12 9 0
3 12 9 0
3 0
12 0
12 0
7 0
3 0
7 3 12 0
7 0
12 7 0
7 3 0
12 7 0
3 12 9 0
7 3 12 0
3 0
7 0
7 3 12 9 0
12 0
7 0
7 3 0
3 9 0
12 0
7 0
12 3 0
12 0
3 0
7 3 9 0
7 12 0
7 3 9 0
12 3 0
12 0
7 0
12 0
3 12 9 0
7 0
7 3 12 9 0
7 12 0
12 0
7 3 0
7 0
7 3 12 0
12 7 0
3 9 0
3 0
3 0
7 0
12 0
7 3 9 0
7 0
12 0
7 3 12 0
3 9 0
3 0
12 0
7 3 0
7 12 0
3 12 9 0
7 0
7 3 12 9 0
12 7 0
12 3 0
3 0
7 0
3 0
12 0
16 1 0
16 -1 0
16 0
2 8 0
13 0
2 8 13 0
13 2 0
2 8 0
2 8 13 0
13 0
13 2 0
2 8 0
2 8 13 0
13 0
13 2 0
2 0
16 0
3 0
11 0
4 0
4 16 0
16 0
2 4 16 8 0
4 0
2 0
11 0
4 16 0
2 16 0
3 9 11 0
2 8 0
16 0
2 4 8 0
2 16 8 0
2 4 16 0
3 9 0
4 0
11 0
2 0
4 2 0
4 0
3 0
11 3 0
16 0
2 8 0
3 9 11 0
16 0
4 16 0
4 0
3 9 0
2 0
16 0
4 2 0
4 16 0
2 16 0
11 0
11 3 0
2 4 16 8 0
2 4 8 0
4 0
2 4 16 0
2 0
3 0
2 16 8 0
11 0
4 0
16 0
4 0
11 0
3 0
4 2 0
16 0
2 4 16 8 0
3 9 11 0
16 0
11 0
4 0
2 16 8 0
2 4 8 0
2 16 0
11 3 0
2 0
4 16 0
2 8 0
2 0
4 0
16 0
4 16 0
2 4 16 0
3 9 0
11 0
16 0
2 4 8 0
16 0
2 0
2 16 8 0
4 16 0
11 0
4 0
4 0
2 4 16 8 0
4 2 0
2 0
3 9 11 0
2 16 0
3 0
4 16 0
3 9 0
4 0
11 3 0
2 4 16 0
16 0
2 8 0
-8 2 0
2 8 1 0
2 8 -1 0
2 0
6 0
5 0
5 14 6 0
6 15 5 0
5 14 0
6 15 0
5 0
6 0
5 14 6 0
6 15 5 0
6 15 0
6 0
5 0
5 14 0
6 15 5 0
5 14 6 0
6 15 0
5 14 0
6 0
5 0
6 15 0
5 14 0
6 15 5 0
5 14 6 0
6 0
5 0
-6 -14 5 0
-14 5 -15 0
-14 -15 6 0
-5 -15 6 0
5 14 1 0
6 15 1 0
1 14 5 6 0
15 1 5 6 0
6 15 -1 0
-1 15 5 6 0
5 14 -1 0
-1 14 5 6 0
5 0
6 0
7 0
4 0
7 0
1 0
4 0
4 7 0
7 0
4 0
1 0
4 0
7 0
4 0
7 4 0
1 0
4 0
4 0
1 0
7 0
4 0
7 0
7 0
4 0
4 0
4 0
7 0
7 0
4 0
10 0
1 0
1 0
1 0
7 0
7 0
7 4 0
1 0
4 0
4 0
4 0
7 0
4 0
4 7 0
7 0
4 0
4 0
7 0
13 0
13 0
13 0
13 0
13 0
13 0
10 0
10 0
10 0
10 0
10 0
10 0
10 0
10 0
10 0
7 0
7 0
7 0
1 10 0
-1 10 0
10 0
1 0
4 0
4 0
4 0
4 0
4 0
4 0
4 0
4 0
10 1 0
10 -1 0
10 0
1 4 0
-1 4 0
4 0
2 -13 -4 -8 0
13 2 1 0
2 8 1 0
13 4 1 0
2 4 1 8 13 0
4 1 0
4 2 1 0
2 4 1 8 0
2 1 8 13 0
2 4 1 13 0
13 1 0
4 2 -1 0
2 8 -1 0
-1 2 4 8 13 0
13 -1 0
-1 2 8 13 0
4 -1 0
13 2 -1 0
-1 2 4 13 0
13 4 -1 0
-1 2 4 8 0
13 0
2 0
4 0
1 0
-1 4 0
4 0
1 0
7 0
7 0
7 0
7 0
7 0
7 0
7 0
7 0
10 0
10 0
10 0
10 0
10 0
10 0
10 0
10 0
10 0
10 0
10 0
10 0
10 0
10 0
10 0
10 0
10 0
10 0
10 0
10 0
10 0
10 0
1 0
7 0
6 0
5 0
7 0
5 0
5 14 6 0
6 0
7 0
5 14 0
6 15 5 0
6 15 0
5 14 0
7 0
5 14 6 0
6 15 0
7 0
6 0
5 0
6 15 5 0
5 0
6 0
5 14 0
5 14 6 0
7 0
7 0
6 15 0
6 15 5 0
6 15 5 0
5 14 0
7 0
6 15 0
5 14 6 0
6 0
7 0
5 0
5 0
6 15 5 0
5 14 0
5 14 6 0
6 0
6 15 0
6 0
5 0
10 0
13 0
13 0
2 0
2 0
13 0
-8 0
2 8 0
13 0
2 0
2 8 0
2 8 0
2 14 5 6 0
-8 0
2 8 0
2 0
2 0
2 0
2 0
2 8 0
13 0
2 8 0
13 0
-8 0
13 0
2 8 13 0
13 2 0
-8 0
13 0
-8 0
2 15 5 6 0
-8 0
2 0
2 0
2 0
13 0
5 14 0
6 15 2 0
-8 0
5 14 6 0
2 0
13 0
-8 2 0
13 2 0
2 8 0
-8 0
13 2 0
13 2 0
13 0
2 0
-8 0
-8 0
2 0
2 8 0
13 0
2 8 13 0
-8 0
2 0
2 8 0
2 8 0
2 0
2 8 5 0
2 8 6 0
13 0
-8 0
2 0
-8 0
2 8 0
-8 0
2 8 0
13 2 0
6 15 0
13 0
2 8 13 0
2 0
2 0
13 0
6 15 5 0
-8 0
5 14 2 0
7 2 0
2 0
13 0
13 0
-8 0
2 8 7 0
2 0
-8 0
2 8 0
2 8 0
13 0
2 0
13 0
13 0
-8 0
-8 0
2 8 0
2 8 0
2 8 0
-8 0
13 0
13 0
13 0
13 0
13 0
2 0
13 0
2 8 0
2 8 0
2 8 0
2 8 0
13 0
13 0
13 0
2 8 0
13 0
7 0
-8 0
2 0
2 8 0
16 0
-8 0
13 0
2 8 13 0
13 0
13 0
2 0
2 0
2 8 13 0
2 0
13 0
-8 0
2 8 0
2 0
2 8 0
-8 0
2 8 0
2 8 0
13 0
2 8 0
-8 0
5 14 2 0
6 15 2 0
-8 0
-8 0
2 0
-8 0
13 2 0
-8 0
2 0
2 8 0
2 8 0
13 0
2 8 0
2 8 13 0
-8 0
-8 0
7 0
2 0
16 0
2 0
2 8 0
13 0
13 0
2 8 0
2 0
2 8 13 0
2 8 0
2 8 0
13 0
13 0
5 14 0
13 0
2 0
2 0
-8 0
2 0
2 8 0
2 8 0
2 8 0
13 0
7 2 0
13 2 0
-8 0
13 0
13 0
13 0
-8 0
-8 0
-8 0
2 8 0
6 15 5 0
13 0
13 0
2 0
2 0
2 0
13 2 0
-8 0
6 15 0
13 0
-8 0
2 0
-8 0
-8 0
13 0
2 8 0
2 8 0
13 0
2 0
-8 0
13 0
13 0
2 0
2 0
2 8 0
2 8 0
-8 0
2 8 0
2 8 0
2 8 0
-8 0
2 0
2 8 0
-8 0
2 0
2 0
2 15 5 6 0
13 2 0
2 0
2 0
2 8 0
2 8 6 0
-8 0
2 14 5 6 0
2 8 0
2 0
13 2 0
13 0
2 0
2 8 0
2 0
13 0
-8 2 0
2 8 5 0
2 8 7 0
13 0
2 0
13 0
13 0
13 0
-8 0
2 8 0
2 0
13 0
13 0
13 0
5 14 6 0
13 0
2 8 0
13 0
13 0
13 0
2 8 13 0
13 0
13 0
2 8 0
2 8 13 0
-8 0
-8 0
2 0
2 8 0
2 0
13 0
2 8 13 0
2 0
13 0
2 0
13 0
13 0
2 0
2 0
2 0
2 0
2 0
2 0
2 0
-8 0
2 0
2 0
2 0
13 0
-8 0
2 0
2 0
-8 0
13 0
2 0
13 0
2 0
-8 0
-8 0
13 0
13 0
2 0
-8 0
2 0
13 0
13 0
13 0
2 0
13 0
2 0
-8 0
-8 0
2 0
2 0
13 0
2 0
13 0
13 0
-8 0
13 0
2 0
13 0
13 0
-8 0
2 0
13 0
7 0
2 0
2 0
-8 0
-8 0
-8 0
2 0
2 0
13 0
13 0
2 0
2 0
-8 0
-8 0
-8 0
13 0
2 0
-8 0
13 0
6 0
2 0
2 0
2 0
-8 0
2 0
-8 0
2 0
2 0
2 0
13 0
2 0
-8 0
2 0
13 0
13 0
2 0
13 0
-8 0
13 0
2 0
2 0
-8 0
2 0
-8 0
2 0
2 0
2 0
-8 2 0
5 0
2 0
13 0
16 0
13 0
13 0
2 0
-8 0
2 0
3 0
3 9 0
3 0
3 9 0
3 0
3 0
3 9 0
3 0
3 9 0
10 1 0
10 -1 0
10 0
10 0
7 0
10 7 0
7 0
7 10 0
10 0
7 0
10 0
10 0
7 10 0
10 7 0
7 0
7 0
10 7 0
10 0
10 0
7 10 0
7 0
7 10 0
10 0
10 0
7 0
10 7 0
7 0
10 0
7 0
3 0
3 0
3 9 0
3 0
3 9 0
3 9 0
3 0
3 0
3 9 0
3 0
4 1 0
4 -1 0
4 0
2 -16 -8 0
2 1 16 0
16 1 0
2 8 1 0
2 1 16 8 0
-1 2 16 8 0
16 -1 0
2 8 -1 0
-1 2 16 0
16 0
2 0
11 0
3 0
7 0
2 0
12 0
7 3 0
7 3 12 0
12 0
7 12 0
12 0
2 8 11 0
11 0
3 0
12 3 0
3 9 0
7 0
7 3 9 0
2 8 0
11 0
2 0
7 0
12 7 0
2 0
11 2 0
11 0
7 3 12 9 0
3 12 9 0
7 0
12 0
3 0
7 3 9 0
11 2 0
11 0
3 9 0
3 0
12 0
2 8 11 0
3 0
12 3 0
12 7 0
7 3 12 9 0
7 12 0
2 0
7 0
7 3 0
3 12 9 0
2 8 0
12 0
7 0
12 0
11 0
7 3 12 0
7 0
11 0
2 0
7 0
7 0
3 9 0
12 0
7 3 9 0
12 7 0
7 3 12 9 0
3 0
7 3 12 0
3 0
2 0
7 0
11 2 0
11 0
2 8 11 0
2 0
12 0
2 8 0
12 0
12 3 0
7 3 0
7 12 0
11 0
3 12 9 0
11 0
11 2 0
2 8 0
11 0
7 12 0
7 0
7 0
12 3 0
12 0
2 8 11 0
7 3 12 0
7 0
3 0
3 9 0
3 12 9 0
12 7 0
2 0
12 0
11 0
7 3 9 0
7 3 12 9 0
11 0
7 3 0
12 0
3 0
2 0
16 0
16 1 0
16 -1 0
16 0
10 0
10 0
1 0
1 10 0
-1 10 0
10 0
2 0
3 0
3 0
3 9 0
2 0
2 8 0
3 0
2 0
2 8 0
2 0
3 0
3 9 0
2 0
3 0
3 9 0
3 0
3 0
2 0
2 0
2 8 0
2 8 0
2 0
3 0
3 9 0
3 0
2 0
10 0
10 0
10 0
10 0
7 0
7 0
7 0
7 0
7 0
7 0
7 0
7 0
7 0
7 0
4 0
4 0
4 0
4 0
10 0
10 0
10 0
10 0
10 0
10 0
10 0
10 0
10 0
10 0
13 0
13 0
13 0
13 0
13 0
13 0
10 1 0
10 -1 0
10 0
3 9 4 0
4 0
4 3 0
3 9 0
3 9 4 0
4 0
4 3 0
3 9 0
1 0
-8 2 0
2 8 1 0
2 8 -1 0
2 0
3 0
2 0
2 8 0
2 8 3 0
3 0
3 9 0
2 0
3 9 2 0
2 0
3 9 0
2 8 0
3 9 2 0
3 0
2 8 3 0
2 0
3 9 0
2 8 3 0
3 9 2 0
3 0
2 8 0
2 8 0
2 0
3 9 0
3 0
2 8 3 0
3 9 2 0
2 0
3 9 0
3 0
2 8 0
3 0
2 0
2 0
3 0
3 9 0
3 0
3 9 2 0
2 8 0
2 0
2 8 3 0
3 0
2 0
3 9 0
3 9 2 0
2 8 3 0
2 8 0
2 8 3 0
2 8 0
3 9 2 0
2 0
3 0
3 9 0
2 8 3 0
2 0
3 9 0
2 8 0
3 9 2 0
3 0
3 9 0
2 8 0
2 0
3 0
3 0
2 0
1 0
1 0
1 13 0
-1 13 0
13 0
1 0
1 0
1 0
-1 13 0
13 0
4 1 0
4 -1 0
4 0
13 4 0
13 4 0
1 0
7 0
7 0
7 0
7 0
7 0
7 0
7 0
7 0
13 0
4 0
4 2 0
2 4 8 13 0
4 0
13 0
4 0
4 0
13 2 0
13 2 4 0
2 8 13 0
2 8 0
13 4 0
2 8 13 0
4 0
4 0
13 2 0
2 8 0
4 0
13 0
2 4 8 13 0
13 0
13 2 4 0
4 0
13 4 0
4 2 0
13 0
13 0
4 0
4 0
2 0
4 0
4 0
4 0
4 0
13 2 4 0
4 2 0
2 8 0
2 8 13 0
13 2 0
4 0
4 0
13 0
13 4 0
13 0
2 4 8 13 0
2 0
4 0
4 0
13 0
13 0
4 0
4 0
1 0
7 0
7 0
7 0
7 0
7 0
7 0
7 0
7 0
7 0
7 0
13 0
13 0
13 0
13 0
3 -9 0
3 0
3 9 0
3 0
3 9 0
3 0
3 9 0
3 0
3 9 0
3 0
10 0
10 0
10 0
4 1 0
4 -1 0
4 0
4 0
4 0
4 0
4 0
4 0
4 0
4 0
4 0
4 0
4 0
1 4 0
-1 4 0
4 0
2 0
3 0
3 0
3 9 0
2 8 0
2 0
2 8 3 0
3 9 2 0
2 8 3 0
3 9 0
3 0
2 8 0
3 9 2 0
2 0
2 8 3 0
2 0
3 9 2 0
3 9 0
3 0
2 8 0
3 0
2 8 0
3 9 0
2 0
3 0
2 0
-14 -15 6 0
-6 -14 5 0
-5 -15 6 0
-14 5 -15 0
15 1 5 6 0
1 14 5 6 0
6 15 1 0
5 14 1 0
-1 14 5 6 0
6 15 -1 0
-1 15 5 6 0
5 14 -1 0
5 0
6 0
-6 -14 5 0
-14 5 -15 0
-14 -15 6 0
-5 -15 6 0
5 14 1 0
15 1 5 6 0
6 15 1 0
1 14 5 6 0
-1 14 5 6 0
6 15 -1 0
5 14 -1 0
-1 15 5 6 0
5 0
6 0
16 1 0
16 -1 0
16 0
4 7 1 0
7 1 0
4 7 1 0
4 1 0
7 -1 0
4 -1 0
-1 4 7 0
-1 4 7 0
7 0
4 0
1 0
16 -1 0
16 0
13 0
13 0
4 1 0
4 -1 0
4 0
7 1 0
7 -1 0
7 0
1 0
16 0
16 0
-8 -16 2 0
2 8 1 0
2 1 16 0
16 1 0
2 1 16 8 0
2 8 -1 0
-1 2 16 0
16 -1 0
-1 2 16 8 0
16 0
2 0
-8 2 0
2 8 1 0
2 8 -1 0
2 0
4 1 0
4 -1 0
4 0
10 0
10 0
7 10 0
7 0
7 0
10 7 0
7 0
10 0
10 0
7 10 0
7 0
10 7 0
10 7 0
7 0
10 0
7 10 0
7 0
10 0
7 0
10 7 0
7 10 0
10 0
7 0
10 0
10 0
7 0
11 0
3 0
12 0
7 0
2 0
7 0
2 8 11 0
12 7 0
3 0
2 8 0
12 3 0
12 0
12 0
11 0
7 3 9 0
11 0
2 0
12 0
7 3 0
7 12 0
7 3 12 0
11 0
7 0
7 3 12 9 0
3 0
11 2 0
3 12 9 0
2 0
7 0
3 9 0
2 0
2 0
2 8 0
3 0
2 8 11 0
12 0
12 3 0
3 12 9 0
12 0
11 0
7 0
7 3 12 0
12 7 0
11 0
7 0
3 9 0
7 3 12 9 0
3 0
7 3 9 0
7 3 0
7 0
12 0
7 12 0
11 2 0
11 0
7 3 12 0
7 3 12 9 0
11 2 0
2 0
7 0
12 3 0
3 0
12 7 0
3 12 9 0
7 3 0
11 0
11 0
12 0
11 0
7 0
2 0
2 8 11 0
12 0
7 3 9 0
12 0
3 0
3 9 0
2 8 0
7 12 0
7 0
3 12 9 0
7 0
11 2 0
2 8 11 0
11 0
3 0
7 3 12 0
12 3 0
2 8 0
7 0
2 0
12 0
11 0
7 3 9 0
11 0
7 3 12 9 0
12 0
3 0
2 0
3 9 0
12 7 0
7 3 0
7 0
7 12 0
12 0
1 0
2 0
3 0
3 9 2 0
2 8 0
2 0
3 9 0
3 0
2 8 3 0
3 9 2 0
3 9 0
3 0
2 8 3 0
2 0
2 8 0
3 9 0
2 8 0
3 0
3 9 2 0
2 0
2 8 3 0
2 0
3 0
2 8 3 0
3 9 0
3 9 2 0
2 8 0
2 0
3 9 2 0
3 0
2 8 3 0
3 9 0
2 8 0
2 0
3 0
5 14 6 0
6 0
5 0
6 15 0
6 15 5 0
5 14 0
5 0
6 0
1 10 0
-1 10 0
10 0
5 14 6 0
6 15 0
5 0
5 14 0
6 15 5 0
6 0
5 0
6 0
6 0
5 14 0
6 15 0
5 14 6 0
5 0
6 15 5 0
6 0
5 0
2 -8 0
2 8 1 0
2 8 -1 0
2 0
4 0
4 0
4 0
4 0
4 0
4 0
4 0
4 0
4 0
2 0
3 0
2 4 0
2 0
2 0
3 9 0
3 9 0
4 0
3 0
3 9 2 0
2 0
2 8 3 0
4 0
2 8 0
3 0
2 8 0
4 0
2 4 8 0
2 8 0
2 0
3 0
3 9 0
2 0
2 8 3 0
3 9 0
3 0
2 4 0
4 0
3 9 2 0
2 4 8 0
4 0
2 8 0
2 0
4 0
2 8 0
3 0
3 9 2 0
2 0
3 9 0
2 8 3 0
2 0
2 0
4 0
2 0
4 0
2 8 0
2 4 8 0
3 9 0
3 0
2 8 0
3 9 0
4 0
3 0
2 4 0
3 0
2 0
4 0
4 0
4 0
4 0
10 1 0
10 -1 0
10 0
16 1 0
16 -1 0
16 0
10 0
10 0
1 10 0
-1 10 0
10 0
4 1 0
4 -1 0
4 0
4 0
4 0
10 1 0
10 -1 0
10 0
1 13 0
-1 13 0
13 0
7 0
11 0
2 0
12 0
3 0
7 3 9 0
11 2 0
7 0
12 0
12 3 0
3 9 0
7 3 0
11 0
7 0
11 0
2 0
3 0
2 8 11 0
7 3 12 0
12 7 0
12 0
2 0
2 8 0
11 0
7 0
3 12 9 0
7 12 0
3 0
7 3 12 9 0
12 0
12 7 0
3 9 0
11 0
3 0
12 0
12 0
7 0
7 0
2 0
7 3 12 9 0
7 0
11 0
2 8 0
7 3 0
2 0
12 3 0
11 2 0
2 8 11 0
7 3 9 0
12 0
7 3 12 0
7 12 0
3 0
11 0
3 12 9 0
7 0
12 0
7 3 0
11 0
7 0
7 3 12 0
12 3 0
7 12 0
12 7 0
12 0
11 0
3 12 9 0
3 0
7 0
11 2 0
12 0
2 8 11 0
7 3 9 0
3 9 0
2 0
7 3 12 9 0
2 8 0
2 0
3 0
11 0
3 0
3 0
12 0
12 3 0
7 3 12 9 0
7 3 0
3 9 0
7 0
7 0
3 12 9 0
11 2 0
2 0
11 0
11 0
7 3 12 0
7 0
2 8 11 0
7 12 0
2 0
12 7 0
11 0
12 0
12 0
2 8 0
7 3 9 0
13 0
13 0
1 0
1 0
-8 2 0
2 8 1 0
2 8 -1 0
2 0
2 0
3 0
3 9 0
2 0
3 9 2 0
3 0
2 8 3 0
2 8 0
3 9 2 0
3 0
2 0
3 9 0
2 8 0
2 8 3 0
2 8 3 0
2 0
2 8 0
3 9 0
3 0
3 9 2 0
3 9 0
3 9 2 0
3 0
2 8 0
2 8 3 0
2 0
3 9 0
2 0
3 0
2 8 0
2 0
3 0
1 0
1 0
7 0
7 1 0
7 -1 0
7 0
4 0
4 0
4 0
4 0
4 0
4 0
4 0
4 0
4 0
13 0
13 0
13 0
13 0
13 0
13 0
13 0
13 0
13 0
16 0
7 16 0
7 0
16 7 0
16 0
7 16 0
7 0
16 7 0
5 0
4 0
2 0
2 0
5 0
5 14 0
4 0
4 0
4 14 5 0
5 0
2 0
4 5 0
4 0
2 8 0
4 0
4 5 0
4 14 5 0
5 0
4 0
2 0
5 0
2 8 0
5 14 0
2 0
4 0
4 0
5 14 0
4 14 5 0
4 0
2 0
4 0
5 0
4 5 0
5 0
2 8 0
2 0
2 0
4 0
4 0
4 14 5 0
5 0
5 14 0
2 0
4 5 0
2 8 0
5 0
4 0
5 0
6 15 5 0
5 14 0
6 0
6 15 0
5 14 6 0
5 14 0
6 15 0
6 15 5 0
5 14 6 0
6 0
5 0
5 0
5 14 6 0
6 0
6 15 0
5 14 0
6 15 5 0
6 15 0
5 14 0
6 0
6 15 5 0
5 0
5 14 6 0
1 10 0
-1 10 0
10 0
13 0
13 0
10 1 0
10 -1 0
10 0
13 0
10 0
10 0
13 0
13 0
10 0
10 0
13 0
10 0
10 0
13 0
13 0
13 0
10 0
13 0
10 0
10 0
13 0
16 1 0
16 -1 0
16 0
10 0
3 9 0
10 0
3 0
3 0
10 0
10 0
10 0
10 0
3 9 0
3 0
3 0
10 0
10 0
3 0
3 9 0
3 0
10 0
10 0
10 0
2 0
3 0
2 0
3 0
2 8 3 0
3 9 0
3 9 2 0
2 8 0
2 8 0
2 8 3 0
3 9 0
2 0
3 0
3 9 2 0
3 9 2 0
2 8 3 0
3 9 0
2 8 0
2 0
3 0
3 0
2 8 0
3 9 2 0
3 9 0
2 0
2 8 3 0
3 0
2 8 0
2 0
3 9 0
3 0
2 0
1 10 0
-1 10 0
10 0
1 0
13 4 -1 0
13 -1 0
-1 4 13 0
4 -1 0
13 -1 0
4 -1 0
13 4 0
4 0
4 13 0
4 0
13 0
13 0
7 0
3 0
12 0
5 0
7 0
7 0
12 0
3 0
5 14 0
12 0
3 0
12 0
7 3 9 0
7 12 0
12 3 0
7 0
7 3 12 0
3 9 0
7 3 12 9 0
5 0
3 12 9 0
12 7 0
7 3 0
12 0
3 0
3 12 9 0
5 0
7 3 0
5 14 0
12 0
7 3 9 0
7 3 12 0
12 7 0
7 3 12 9 0
7 0
3 9 0
12 3 0
7 0
12 0
7 0
7 12 0
3 0
7 12 0
12 7 0
12 0
7 0
3 0
7 3 12 9 0
7 3 9 0
7 3 12 0
3 0
3 9 0
12 0
5 0
7 0
3 12 9 0
7 0
12 0
7 3 0
5 14 0
12 3 0
7 12 0
3 0
5 0
7 3 12 0
7 0
7 0
12 0
12 3 0
3 9 0
7 3 12 9 0
3 12 9 0
12 0
7 0
5 14 0
12 7 0
12 0
7 3 9 0
7 3 0
3 0
7 0
5 0
12 0
3 0
1 0
3 0
12 0
7 0
12 0
3 0
7 0
7 0
3 9 0
3 9 12 0
12 3 0
12 0
12 0
3 9 12 0
7 0
3 0
3 9 0
12 0
12 3 0
7 0
12 3 0
3 9 0
12 0
3 0
7 0
3 9 12 0
12 0
7 0
3 0
7 0
12 0
3 9 12 0
12 3 0
7 0
3 9 0
12 0
16 1 0
16 -1 0
16 0
10 1 0
10 -1 0
10 0
16 0
2 0
2 0
16 0
2 8 0
16 0
16 0
16 0
2 0
2 8 0
2 0
16 0
16 0
2 8 0
2 0
2 8 0
16 0
16 0
16 0
2 0
4 7 0
4 7 0
7 4 0
4 7 0
7 4 0
7 4 0
4 7 0
7 4 0
4 7 0
4 7 0
7 4 0
4 7 0
7 4 0
4 7 0
2 0
3 0
2 0
3 9 0
3 0
2 0
3 0
2 8 0
2 0
2 0
3 9 0
3 0
2 8 0
3 0
2 0
2 0
2 0
3 0
2 0
2 0
3 0
2 8 0
3 9 0
3 0
2 0
3 9 0
2 0
2 8 0
3 0
2 0
13 1 0
13 -1 0
13 0
1 4 0
-1 4 0
4 0
16 0
16 1 0
16 -1 0
16 0
10 0
10 0
10 0
10 0
10 0
10 0
10 0
10 0
10 0
10 0
3 0
2 0
2 8 3 0
2 8 0
3 9 2 0
3 0
2 0
3 9 0
3 9 2 0
2 8 3 0
2 0
2 8 0
3 9 0
3 0
3 0
3 9 0
2 0
3 9 2 0
2 8 3 0
2 8 0
2 8 0
3 9 0
3 9 2 0
2 0
3 0
2 8 3 0
3 9 2 0
2 8 3 0
2 0
2 8 0
3 0
3 9 0
3 0
2 0
1 0
-1 4 0
4 0
1 0
1 0
10 1 0
10 -1 0
10 0
10 0
10 0
10 0
10 0
10 0
10 0
10 0
10 0
10 0
-8 2 0
2 8 1 0
2 8 -1 0
2 0
13 0
7 1 0
7 -1 0
7 0
3 0
3 9 0
3 0
1 4 0
-1 4 0
4 0
1 4 0
1 13 0
-1 4 0
-1 13 0
4 0
13 0
1 0
-1 4 0
4 0
7 0
7 0
2 0
10 0
2 8 0
10 0
2 0
10 0
2 8 0
10 0
2 0
10 0
10 0
10 0
2 0
2 8 0
2 8 0
10 0
2 0
10 0
2 0
10 0
5 14 0
5 14 6 0
6 15 5 0
6 0
5 0
6 15 0
5 0
6 0
1 10 0
-1 10 0
10 0
4 0
4 0
4 0
4 0
4 0
4 0
4 0
4 0
4 0
2 -8 0
2 8 1 0
2 8 -1 0
2 0
1 0
13 0
13 0
4 0
10 1 0
10 -1 0
10 0
10 0
10 0
10 0
10 0
10 0
10 0
1 0
4 0
4 0
4 0
4 0
4 0
4 0
4 0
4 -1 0
4 0
1 0
1 0
7 0
7 0
7 0
7 0
7 0
7 0
7 0
7 0
7 0
10 1 0
10 7 1 0
7 1 0
7 1 10 0
10 7 -1 0
10 -1 0
-1 7 10 0
7 -1 0
10 0
7 0
10 0
7 10 0
10 0
10 7 0
7 0
7 0
7 0
10 0
10 7 0
7 10 0
10 0
7 0
7 0
10 0
7 10 0
7 0
10 0
10 7 0
7 0
7 0
10 0
10 7 0
7 10 0
10 0
10 0
10 7 0
7 0
7 0
7 10 0
10 0
10 7 0
7 10 0
7 0
10 0
10 0
7 0
7 0
10 0
2 8 0
13 4 0
13 2 4 0
2 8 0
13 2 0
13 0
4 2 0
13 2 0
2 8 13 0
2 8 13 0
4 0
13 0
2 4 8 13 0
2 8 13 0
13 2 4 0
2 4 8 13 0
13 2 0
13 0
2 8 13 0
13 4 0
13 2 0
4 0
2 8 0
13 0
2 8 0
4 2 0
2 13 -1 0
4 2 -1 0
13 -1 0
2 -1 0
4 13 -1 0
13 0
13 4 0
2 4 8 13 0
13 0
13 2 0
2 0
2 8 0
13 0
13 2 0
2 8 13 0
4 0
13 0
2 8 0
2 8 0
13 2 4 0
4 2 0
2 8 13 0
13 0
13 0
2 0
2 0
13 0
4 0
2 0
3 0
2 0
3 0
2 0
3 9 0
2 8 3 0
2 8 0
3 9 2 0
3 9 0
2 0
3 0
3 9 2 0
2 8 3 0
2 8 0
2 8 3 0
2 8 0
2 0
3 0
3 9 2 0
3 9 0
2 0
3 9 2 0
3 9 0
2 8 3 0
3 0
2 8 0
2 0
2 8 0
3 0
3 9 0
3 0
2 0
1 0
16 -1 0
16 0
7 0
10 7 0
7 10 0
7 0
10 0
10 0
7 0
7 0
10 0
10 7 0
7 10 0
10 0
10 0
10 0
7 0
10 7 0
7 10 0
7 0
7 0
7 0
10 0
10 0
10 7 0
7 10 0
10 0
7 0
2 0
3 0
3 9 0
2 8 0
3 9 2 0
3 0
2 8 3 0
2 0
2 8 0
2 0
3 0
3 9 0
3 9 2 0
2 8 3 0
2 0
3 9 2 0
3 0
2 8 0
3 9 0
2 8 3 0
3 9 0
2 0
2 8 3 0
3 9 2 0
3 0
2 8 0
2 0
3 0
3 9 0
2 8 0
2 0
3 0
-8 2 0
2 8 1 0
2 8 -1 0
2 0
2 0
3 0
3 0
2 8 3 0
3 9 2 0
2 0
3 9 0
2 8 0
2 0
2 8 0
3 9 0
3 0
3 9 2 0
2 8 3 0
3 9 2 0
2 0
2 8 0
3 0
3 9 0
2 8 3 0
2 0
3 9 0
3 0
2 8 0
3 0
2 0
2 0
16 0
2 8 0
4 0
4 0
4 0
2 0
2 0
3 9 0
5 0
3 9 0
2 4 8 0
4 2 0
4 0
4 0
2 4 0
4 0
4 0
3 0
2 0
2 8 0
3 9 0
2 0
3 0
3 9 0
4 0
16 0
2 8 0
2 0
3 0
4 0
4 0
2 8 0
2 8 0
4 0
2 0
3 0
2 4 8 0
4 0
14 5 0
16 0
2 0
3 9 0
16 0
2 0
16 0
2 4 8 0
2 4 0
2 4 8 0
2 0
5 0
2 0
4 0
4 0
5 0
3 0
2 0
4 0
4 0
4 0
4 2 0
3 9 0
4 0
2 0
2 0
2 8 0
3 0
4 0
16 0
2 0
4 0
4 0
2 4 8 0
3 9 0
2 0
4 0
2 0
2 0
2 8 0
3 9 0
3 9 0
2 4 0
2 0
2 4 8 0
4 2 0
14 5 0
3 0
4 0
16 0
4 0
2 0
2 4 8 0
5 0
4 0
2 4 8 0
2 8 0
5 0
16 0
16 0
3 9 0
4 0
2 8 0
2 4 0
4 0
2 0
4 0
4 0
16 0
2 0
3 9 0
4 0
3 0
5 0
3 9 0
2 0
4 0
2 0
4 2 0
4 0
4 0
3 0
3 0
4 0
2 8 0
3 0
3 0
2 0
4 0
4 0
2 0
3 9 0
4 0
3 0
2 4 8 0
2 8 0
3 9 0
2 0
2 4 0
2 0
2 4 0
4 0
4 0
2 0
2 0
2 0
4 0
3 9 0
2 4 8 0
4 0
3 9 0
2 4 8 0
2 0
4 0
2 0
2 8 0
3 0
3 0
16 0
3 0
4 0
4 0
5 0
4 0
4 2 0
2 4 8 0
4 0
4 0
3 0
4 0
4 0
2 0
3 0
16 0
2 8 0
5 0
3 9 0
16 0
16 0
3 9 0
2 0
2 8 0
4 2 0
16 0
4 0
2 8 0
2 0
2 0
3 9 0
5 0
4 0
4 0
14 5 0
3 0
3 0
4 0
2 0
3 0
2 1 0
2 1 8 0
2 -1 0
2 0
2 8 0
1 0
7 1 0
7 -1 0
7 0
2 0
3 0
2 8 3 0
3 9 0
2 0
3 9 2 0
2 8 0
3 0
3 0
3 9 2 0
2 8 0
3 9 0
2 0
2 8 3 0
2 0
3 9 2 0
3 0
2 8 0
3 9 0
2 8 3 0
3 0
2 0
3 9 2 0
2 8 0
2 8 3 0
3 9 0
3 0
3 9 0
2 8 0
2 0
3 0
2 0
-6 -14 5 0
-14 5 -15 0
-5 -15 6 0
-14 -15 6 0
6 15 1 0
5 14 1 0
15 1 5 6 0
1 14 5 6 0
-1 15 5 6 0
5 14 -1 0
6 15 -1 0
-1 14 5 6 0
5 0
6 0
10 0
7 0
10 7 0
10 0
7 0
10 0
7 0
7 10 0
10 0
10 7 0
7 10 0
10 0
7 0
7 0
7 0
7 0
10 0
7 10 0
10 7 0
10 0
10 7 0
7 0
10 0
7 0
7 10 0
10 0
10 0
7 0
-8 2 0
2 8 1 0
2 8 -1 0
2 0
1 0
5 14 6 0
6 15 5 0
5 0
5 14 0
6 15 0
6 0
6 0
5 0
-8 2 0
2 8 1 0
2 8 -1 0
2 0
1 0
1 0
-5 -15 6 0
-14 5 -15 0
-14 -15 6 0
-6 -14 5 0
6 15 1 0
15 1 5 6 0
5 14 1 0
1 14 5 6 0
6 15 -1 0
-1 14 5 6 0
5 14 -1 0
-1 15 5 6 0
5 0
6 0
10 0
10 0
10 0
10 0
10 0
10 0
10 0
10 0
10 0
1 0
10 0
10 0
13 0
13 0
16 1 0
16 -1 0
16 0
1 0
7 0
7 0
7 0
7 0
7 0
7 0
7 0
7 0
7 0
4 0
4 0
4 0
4 0
4 0
4 0
4 0
4 0
4 0
4 0
4 0
4 0
4 0
4 0
4 0
4 0
4 0
4 0
4 0
4 0
4 0
4 0
4 0
4 0
4 0
4 0
2 -13 -4 -8 0
2 1 8 13 0
2 4 1 8 13 0
2 4 1 8 0
2 4 1 13 0
13 4 1 0
4 2 1 0
2 8 1 0
4 1 0
13 2 1 0
13 1 0
-1 2 8 13 0
2 8 -1 0
13 2 -1 0
4 2 -1 0
4 -1 0
-1 2 4 13 0
-1 2 4 8 13 0
13 4 -1 0
13 -1 0
-1 2 4 8 0
13 0
2 0
4 0
10 1 0
-1 10 0
10 0
1 0
-1 7 10 0
7 -1 0
10 -1 0
10 7 -1 0
10 0
7 10 0
10 7 0
7 0
4 0
4 0
4 0
4 0
4 0
4 0
4 0
4 0
4 0
10 0
10 0
2 0
3 0
2 8 0
3 0
2 8 3 0
3 9 2 0
3 9 0
2 0
2 8 3 0
2 8 0
3 0
3 9 0
2 0
3 9 2 0
3 9 0
2 8 3 0
3 0
2 0
2 8 0
3 9 2 0
2 0
2 8 3 0
3 9 0
3 0
3 9 2 0
2 8 0
3 9 0
2 8 0
3 0
2 0
3 0
2 0
10 0
10 0
10 0
10 0
10 0
10 0
13 0
13 0
13 0
13 0
1 0
7 0
7 0
7 0
7 0
7 0
7 0
7 0
7 0
4 0
4 0
4 0
4 0
4 0
4 0
4 0
4 0
4 0
10 1 0
10 -1 0
10 0
1 0
7 -1 0
7 0
1 0
6 15 0
5 14 0
6 15 5 0
5 14 6 0
6 15 0
5 14 0
6 15 5 0
5 14 6 0
3 9 0
3 0
3 0
3 9 0
3 0
3 9 0
2 -16 -8 0
2 1 16 8 0
2 1 16 0
2 8 1 0
16 1 0
2 8 -1 0
-1 2 16 8 0
-1 2 16 0
16 -1 0
16 0
2 0
1 4 0
-1 4 0
4 0
-8 2 0
2 8 1 0
2 8 -1 0
2 0
16 0
16 0
3 9 0
3 9 0
1 10 0
-1 10 0
10 0
4 0
4 0
3 0
2 0
3 9 0
3 9 2 0
3 0
2 8 3 0
2 8 0
2 0
3 9 0
2 0
3 0
2 8 3 0
3 9 2 0
2 8 0
3 9 0
3 0
2 8 3 0
2 0
3 9 2 0
2 8 0
2 8 0
3 9 2 0
3 9 0
3 0
2 0
2 8 3 0
2 0
3 9 0
3 0
2 8 0
3 0
2 0
10 0
4 0
10 0
10 0
4 0
10 0
4 0
10 0
4 0
10 0
10 0
4 0
10 0
4 0
4 0
10 0
10 0
10 0
10 0
10 0
4 0
4 0
10 0
4 0
4 0
4 0
4 0
4 0
4 0
4 0
4 0
4 0
4 0
4 0
1 0
16 1 0
16 -1 0
16 0
16 1 0
16 -1 0
16 0
4 0
4 0
4 0
4 0
4 0
4 0
4 0
4 0
4 0
-8 -13 2 0
2 8 1 0
13 2 1 0
13 1 0
2 1 8 13 0
2 8 -1 0
13 2 -1 0
13 -1 0
-1 2 8 13 0
13 0
2 0
1 0
13 4 0
13 0
4 0
13 0
13 4 0
13 0
4 0
4 0
13 0
13 0
13 4 0
13 0
4 0
13 4 0
13 0
13 0
4 0
13 0
4 0
4 0
4 0
13 0
4 0
13 0
4 0
13 0
13 0
13 0
4 0
4 0
4 0
4 0
13 0
13 4 0
13 4 0
4 0
4 0
13 0
13 4 0
13 4 0
13 0
4 0
13 0
13 0
13 0
4 0
13 0
13 0
4 0
4 0
13 0
13 0
13 0
13 4 0
13 0
4 0
4 0
13 4 0
4 0
4 0
4 0
4 0
13 0
13 0
13 0
13 4 0
4 0
4 0
13 0
13 4 0
4 0
13 0
4 0
13 0
13 0
16 1 0
16 -1 0
16 0
16 1 0
16 -1 0
16 0
3 0
2 0
2 8 3 0
2 8 0
3 0
3 9 0
3 9 2 0
2 0
3 9 0
2 0
2 8 0
3 0
2 8 3 0
3 9 2 0
3 9 0
2 0
2 8 3 0
3 9 2 0
3 0
2 8 0
2 0
3 9 0
2 8 0
3 0
3 0
2 0
16 0
16 1 0
16 -1 0
16 0
1 0
7 0
7 0
16 0
16 0
16 0
16 0
16 0
16 0
16 0
16 0
16 0
16 0
1 0
11 0
2 0
4 0
3 0
11 0
4 3 9 0
3 0
3 9 0
4 0
4 0
2 8 0
11 0
3 0
2 0
4 0
11 0
4 3 0
4 0
4 3 0
4 3 9 0
3 9 0
11 0
11 0
3 0
3 0
2 0
2 8 0
4 0
4 0
11 0
2 8 0
3 0
4 0
2 0
4 3 0
4 0
3 0
11 0
11 0
11 0
4 3 9 0
3 9 0
4 0
3 0
3 0
4 0
11 0
4 0
11 0
2 0
4 3 0
2 8 0
4 3 9 0
3 9 0
4 0
11 0
6 0
5 0
5 14 0
5 14 6 0
5 0
6 0
6 15 0
6 15 5 0
5 0
6 0
5 14 6 0
6 15 5 0
6 15 0
5 14 0
6 0
5 14 6 0
5 14 0
6 15 5 0
5 0
6 15 0
5 14 0
5 0
6 15 5 0
6 0
5 14 6 0
6 15 0
6 15 5 0
6 15 0
5 14 0
5 14 6 0
13 0
13 0
1 0
-1 13 0
13 0
1 0
4 0
7 1 0
7 -1 0
7 0
16 0
16 1 0
16 -1 0
16 0
13 0
13 0
10 1 0
10 -1 0
10 0
10 4 1 0
4 1 0
10 1 0
4 -1 0
10 -1 0
10 4 -1 0
4 0
10 0
3 0
2 0
7 0
12 0
11 0
12 7 0
11 2 0
11 0
7 3 12 0
7 0
11 0
7 3 0
7 0
7 0
3 9 0
12 0
2 0
12 0
3 0
3 12 9 0
7 12 0
12 3 0
2 8 0
2 8 11 0
12 0
2 0
11 0
3 0
7 3 12 9 0
7 3 9 0
3 0
12 0
12 7 0
11 0
7 3 0
11 2 0
2 8 0
7 3 12 0
12 0
7 0
7 0
7 3 12 9 0
11 0
7 12 0
2 0
3 9 0
2 8 11 0
3 0
12 3 0
2 0
11 0
3 12 9 0
12 0
7 3 9 0
7 0
3 0
7 0
7 3 0
7 0
2 0
12 7 0
3 12 9 0
3 0
2 0
7 3 12 9 0
12 0
11 0
11 0
11 0
12 0
11 2 0
7 0
2 8 11 0
12 0
7 3 9 0
3 9 0
2 8 0
12 3 0
7 3 12 0
7 12 0
7 0
12 0
7 3 0
3 0
7 0
11 2 0
12 7 0
7 0
11 0
3 12 9 0
2 0
2 8 0
7 3 9 0
11 0
2 0
12 0
7 3 12 9 0
7 3 12 0
11 0
3 0
2 8 11 0
12 0
12 3 0
3 9 0
7 12 0
10 0
10 0
10 0
1 0
7 0
7 0
7 0
7 0
7 0
7 0
7 0
7 0
-6 -14 5 0
-14 5 -15 0
-14 -15 6 0
-5 -15 6 0
15 1 5 6 0
6 15 1 0
5 14 1 0
1 14 5 6 0
5 14 -1 0
-1 14 5 6 0
-1 15 5 6 0
6 15 -1 0
5 0
6 0
1 4 0
-1 4 0
4 0
13 0
13 0
13 0
13 0
13 0
13 0
13 0
13 0
13 0
1 13 0
-1 13 0
13 0
6 15 0
6 15 5 0
6 0
5 14 0
5 14 6 0
5 0
7 1 0
7 -1 0
7 0
1 4 0
-1 4 0
4 0
5 14 6 0
6 0
5 0
6 15 0
5 14 0
6 15 5 0
16 0
1 0
4 1 0
4 -1 0
1 4 0
-1 4 0
4 0
2 -8 0
2 1 8 0
-1 2 4 8 0
-1 2 8 0
-1 2 8 0
-1 2 3 8 0
2 0
2 0
2 3 0
4 2 0
13 0
13 0
2 0
3 0
3 9 2 0
2 8 3 0
3 0
2 8 0
2 0
3 9 0
3 9 0
3 0
2 8 3 0
2 0
2 8 0
3 9 2 0
3 9 0
2 8 0
2 8 3 0
2 0
3 0
3 9 2 0
2 0
2 8 3 0
2 8 0
3 9 2 0
3 9 0
3 0
3 9 0
3 0
2 8 3 0
2 8 0
2 0
3 9 2 0
3 0
2 0
-8 2 0
2 8 1 0
2 8 -1 0
2 0
6 15 5 0
5 14 0
6 15 0
5 14 6 0
5 0
6 0
5 0
6 0
2 0
3 0
3 9 0
2 8 3 0
3 9 2 0
2 8 0
3 0
2 0
2 8 3 0
3 0
3 9 2 0
2 0
2 8 0
3 9 0
2 8 0
3 9 2 0
3 9 0
2 0
2 8 3 0
3 0
2 8 0
3 9 0
3 0
2 8 3 0
2 0
3 9 2 0
2 8 0
3 9 0
3 0
2 0
3 0
2 0
1 0
1 0
4 0
7 0
10 0
10 0
7 0
10 0
7 0
10 0
10 0
7 0
7 0
7 0
10 0
7 0
10 0
10 0
7 0
7 0
10 0
10 0
7 0
7 0
7 0
7 0
7 0
7 0
7 0
7 0
7 0
7 0
7 0
-8 0
2 0
13 0
-8 0
2 0
13 0
4 0
4 0
1 10 0
-1 10 0
10 0
1 0
4 0
3 0
4 0
4 0
4 0
3 0
3 0
4 3 9 0
3 9 0
4 3 0
4 3 0
4 0
4 0
3 0
3 0
3 9 0
4 0
4 3 9 0
3 0
4 0
3 0
4 3 0
4 0
3 9 0
4 0
4 3 9 0
4 0
3 0
3 0
4 3 9 0
4 0
4 3 0
4 0
3 9 0
4 0
4 0
4 0
4 0
4 0
4 0
4 0
4 0
4 0
10 7 0
7 0
10 0
7 0
10 0
7 10 0
7 10 0
10 7 0
7 0
7 0
10 0
10 0
10 7 0
7 0
10 0
10 0
7 0
7 10 0
7 0
7 10 0
10 0
10 7 0
7 0
10 0
10 0
7 0
10 1 0
10 -1 0
10 0
16 1 0
16 -1 0
16 0
5 0
6 0
6 15 5 0
5 14 0
5 0
5 14 6 0
6 0
6 15 0
6 15 0
6 15 5 0
6 0
5 14 0
5 14 6 0
5 0
5 14 6 0
5 14 0
6 15 5 0
6 15 0
6 0
5 0
5 0
6 15 5 0
5 14 6 0
6 15 0
6 0
5 14 0
5 0
6 0
5 0
6 15 5 0
5 14 0
6 0
5 14 6 0
6 15 0
6 0
5 0
1 0
10 0
10 0
10 0
10 0
10 0
10 0
10 0
10 0
10 0
1 0
3 0
4 0
3 9 0
4 0
4 3 9 0
3 0
4 0
4 0
3 0
4 3 0
3 0
3 9 0
4 0
4 0
4 3 9 0
4 0
3 0
4 3 0
4 0
4 0
3 0
4 3 9 0
3 9 0
4 3 0
4 0
3 0
4 0
4 0
4 3 9 0
4 0
4 3 0
3 0
3 0
3 9 0
10 0
10 0
-6 -14 5 0
-5 -15 6 0
-14 5 -15 0
-14 -15 6 0
15 1 5 6 0
6 15 1 0
5 14 1 0
1 14 5 6 0
-1 15 5 6 0
6 15 -1 0
5 14 -1 0
-1 14 5 6 0
5 0
6 0
1 0
13 -1 0
13 -1 0
13 4 -1 0
4 -1 0
4 -1 0
-1 4 13 0
13 4 0
4 0
4 0
13 0
4 13 0
13 0
7 1 0
7 -1 0
7 0
3 0
2 0
2 0
2 8 0
3 0
2 8 3 0
3 9 0
3 9 2 0
2 8 0
2 8 3 0
3 9 2 0
3 9 0
2 0
3 0
3 9 0
2 8 3 0
2 0
3 0
3 9 2 0
2 8 0
2 8 0
3 0
3 9 0
2 8 3 0
2 0
3 9 2 0
3 9 2 0
2 0
3 0
2 8 3 0
2 8 0
3 9 0
3 0
2 0
10 0
10 0
16 1 0
16 -1 0
16 0
-8 2 0
2 8 1 0
2 8 -1 0
2 0
1 4 0
-1 4 0
4 0
4 0
4 0
13 0
13 0
4 0
4 0
4 0
4 0
13 0
4 0
13 0
4 0
-8 0
2 0
13 0
-8 0
2 0
13 0
3 9 0
3 9 0
4 0
4 0
4 0
4 0
4 0
4 0
4 0
4 0
4 0
6 15 5 0
5 14 0
6 15 0
5 14 6 0
3 0
2 0
3 9 2 0
3 9 0
2 0
2 8 3 0
2 8 0
3 0
2 0
2 8 0
3 9 2 0
2 8 3 0
3 9 0
3 0
3 9 2 0
3 0
2 8 0
3 9 0
2 8 3 0
2 0
3 9 2 0
3 9 0
2 8 0
2 0
2 8 3 0
3 0
3 0
3 9 0
2 0
2 8 0
2 0
3 0
16 1 0
16 -1 0
16 0
2 -16 -8 0
2 1 16 8 0
2 1 16 0
2 8 1 0
16 1 0
-1 2 16 0
2 8 -1 0
-1 2 16 8 0
16 -1 0
16 0
2 0
7 0
3 0
5 0
2 8 0
2 0
12 0
3 9 0
5 0
7 0
16 0
12 0
7 3 0
7 0
12 0
4 2 0
7 3 12 0
2 8 0
7 3 9 0
4 0
2 4 8 0
2 0
12 0
2 0
3 0
3 9 0
4 0
12 3 0
2 4 0
7 0
7 12 0
12 0
7 0
3 0
2 0
16 0
3 12 9 0
3 12 0
7 0
2 8 0
4 0
3 12 0
7 5 0
3 9 0
3 0
3 0
7 3 12 9 0
7 12 0
3 9 0
5 0
3 0
2 0
7 3 0
7 12 0
2 0
16 0
2 4 8 0
4 2 0
3 0
7 0
3 9 0
7 12 0
2 0
7 12 0
7 12 0
12 0
16 0
5 0
5 0
3 12 0
4 0
12 0
3 9 0
3 9 0
3 0
2 0
2 4 0
3 12 9 0
4 0
4 0
3 12 0
7 3 0
4 0
4 0
4 0
7 0
16 0
2 16 0
4 0
3 9 0
14 5 0
2 8 0
7 3 9 0
2 8 0
2 0
7 0
12 0
7 3 0
7 0
12 0
12 0
2 0
7 0
12 0
12 0
2 0
4 0
12 0
2 0
2 0
2 8 5 0
16 0
5 0
3 0
3 12 9 0
14 5 0
2 0
2 8 0
2 0
2 0
7 0
7 3 9 0
4 0
7 3 12 9 0
7 3 9 0
2 0
4 0
2 16 8 0
7 0
4 0
3 12 9 0
2 8 0
3 9 0
4 0
3 12 9 0
2 0
7 3 0
12 0
7 3 12 9 0
5 0
7 0
7 12 0
14 5 0
7 12 0
2 0
4 0
3 12 0
2 0
2 0
4 0
3 0
7 0
4 0
7 3 12 0
2 0
7 0
2 0
2 0
2 4 8 0
12 0
3 0
3 9 0
2 0
7 0
7 12 0
2 8 0
3 0
2 4 8 0
7 12 0
7 0
4 0
2 8 0
2 4 8 0
2 4 0
7 3 12 0
4 0
2 0
7 3 9 0
4 0
7 0
2 0
2 0
16 0
3 0
16 0
2 8 0
7 3 12 0
7 0
3 0
3 9 0
5 0
4 0
3 0
7 14 5 0
2 0
12 0
2 8 0
7 3 12 9 0
4 0
3 0
2 14 5 0
3 0
4 0
2 0
2 8 0
16 0
3 9 0
3 0
2 8 0
7 0
3 9 0
3 0
2 0
7 3 12 0
7 3 12 9 0
4 0
3 12 9 0
4 0
4 0
12 0
2 8 0
2 8 0
3 9 0
2 8 0
3 9 0
7 12 0
3 0
3 0
2 0
12 0
7 12 0
7 3 12 0
12 0
7 3 9 0
3 12 9 0
3 9 0
7 0
3 0
2 0
2 0
2 0
2 4 8 0
5 0
7 14 5 0
7 3 9 0
2 8 0
5 0
12 0
12 0
4 0
3 9 0
3 9 0
7 3 9 0
3 0
3 0
2 14 5 0
2 0
7 0
2 0
7 3 12 9 0
3 0
3 9 0
2 0
4 0
3 0
4 0
14 5 0
2 0
4 0
3 0
3 0
7 0
3 0
4 0
7 3 0
2 8 0
4 0
3 0
12 0
7 3 9 0
12 0
2 8 0
7 3 0
4 2 0
4 0
7 3 12 0
4 0
3 0
5 0
7 0
7 12 0
3 0
7 0
4 0
2 4 0
4 0
2 4 8 0
3 12 9 0
3 12 9 0
16 0
7 3 12 9 0
2 0
2 0
7 3 0
2 8 0
5 0
7 3 12 0
7 3 9 0
3 9 0
3 9 0
4 0
2 4 0
7 0
4 0
2 0
3 12 9 0
3 12 0
7 0
2 0
2 8 0
7 0
3 0
3 12 0
12 3 0
7 12 0
2 8 0
4 0
3 12 9 0
12 0
2 0
3 9 0
12 0
12 0
4 0
3 9 0
4 0
7 0
7 3 0
4 0
2 8 0
5 0
2 8 5 0
4 0
4 0
7 12 0
3 9 0
3 12 0
2 0
2 0
2 0
4 0
2 0
7 0
4 0
7 0
12 0
16 0
7 0
4 2 0
12 0
4 0
2 16 8 0
7 0
2 8 0
2 0
3 9 0
14 5 0
3 9 0
2 4 8 0
4 0
5 0
3 0
2 0
2 0
7 0
12 0
3 0
4 0
4 0
12 0
7 12 0
12 0
3 12 0
2 4 8 0
12 0
7 0
2 0
12 0
7 3 12 9 0
2 16 0
2 0
5 0
7 0
2 8 0
7 3 12 0
3 0
2 8 0
16 0
3 9 0
2 0
3 12 0
2 8 0
4 0
5 0
2 0
2 8 0
2 8 0
16 0
16 0
2 0
7 3 12 9 0
7 0
7 3 12 0
7 5 0
7 0
2 8 0
16 0
4 0
7 12 0
2 0
7 12 0
14 5 0
16 0
16 0
3 12 9 0
7 0
7 3 12 9 0
2 0
3 0
2 0
3 9 0
2 0
7 0
2 0
7 12 0
2 4 8 0
7 12 0
4 0
2 0
2 4 0
12 0
16 0
7 0
3 0
7 3 0
4 0
5 0
3 0
3 0
2 0
2 0
12 0
12 0
12 0
7 0
7 0
16 0
2 0
2 0
12 0
3 0
7 0
2 0
4 0
12 0
3 0
7 0
7 0
3 0
7 0
2 0
2 0
3 0
3 0
2 0
12 0
3 0
3 9 0
2 16 8 0
16 0
12 0
2 4 8 0
12 0
3 0
2 4 8 0
2 8 0
2 0
7 3 9 0
5 0
2 4 8 0
12 0
2 8 0
4 0
3 12 9 0
7 3 12 9 0
7 3 0
12 0
5 0
4 0
2 16 0
4 0
7 3 12 9 0
16 0
2 0
2 8 0
4 0
2 8 0
3 0
4 0
2 8 0
4 0
3 0
7 3 12 0
2 0
14 5 0
7 3 12 0
3 12 0
12 0
12 0
3 9 0
3 9 0
7 12 0
7 12 0
7 3 9 0
12 0
7 0
3 12 9 0
5 0
5 0
4 0
2 4 0
12 0
3 9 0
3 0
12 0
3 0
7 0
4 0
7 0
3 9 0
2 8 0
7 0
2 0
2 4 0
14 5 0
7 3 9 0
4 2 0
4 0
4 0
7 0
2 0
2 0
7 0
2 14 5 0
7 0
7 14 5 0
3 0
4 0
3 0
4 0
7 0
3 12 0
3 9 0
12 0
7 12 0
12 0
3 0
2 0
7 12 0
2 0
2 0
2 8 0
2 8 5 0
3 0
3 0
2 0
7 3 12 0
7 12 0
2 4 0
3 0
2 0
3 9 0
2 0
4 0
7 5 0
7 0
3 12 0
3 9 0
4 0
12 0
16 0
4 0
3 12 9 0
2 0
2 4 8 0
7 12 0
3 12 0
3 9 0
3 0
7 12 0
7 3 0
7 3 12 0
5 0
4 0
3 0
4 0
4 0
4 0
7 0
7 3 0
16 0
3 12 0
5 0
3 12 9 0
2 0
12 0
2 0
7 0
2 8 0
4 0
7 0
7 3 9 0
7 0
5 0
3 0
3 9 0
2 8 0
3 12 9 0
14 5 0
3 12 9 0
7 3 12 9 0
3 0
4 0
4 0
2 0
2 8 0
2 0
12 0
12 3 0
2 8 0
16 0
3 0
7 3 12 9 0
2 0
16 0
3 9 0
7 12 0
3 9 0
7 0
3 0
2 0
2 0
2 0
3 0
7 0
7 0
2 0
7 12 0
7 12 0
3 0
2 0
7 3 0
7 3 9 0
16 0
2 0
7 3 12 0
7 0
4 0
12 0
2 8 0
3 9 0
16 0
2 4 8 0
2 8 0
5 0
7 3 12 9 0
3 0
7 0
7 0
3 9 0
2 8 0
7 0
16 0
2 0
12 0
2 0
2 8 0
4 0
2 0
2 0
4 0
2 0
7 0
4 0
12 0
3 9 0
2 0
2 0
7 3 0
4 0
4 2 0
2 0
12 0
12 0
2 0
3 0
2 0
7 0
3 0
2 0
2 0
7 0
7 0
12 0
7 0
3 0
7 0
2 0
12 0
2 0
3 0
12 0
3 0
12 0
2 0
4 0
7 0
3 0
3 0
3 0
4 0
3 0
16 0
5 0
3 0
2 0
3 9 0
2 8 3 0
2 8 0
3 9 2 0
3 0
2 0
3 9 0
3 9 2 0
2 8 0
2 0
3 0
2 8 3 0
3 0
2 0
3 9 0
3 9 2 0
2 8 0
2 8 3 0
2 8 3 0
3 9 0
3 9 2 0
2 8 0
3 0
2 0
3 9 0
2 0
3 0
2 8 0
2 0
3 0
13 0
13 0
13 0
13 0
13 0
13 0
13 0
13 0
13 0
-8 0
2 0
13 0
-8 0
2 0
13 0
7 0
7 0
7 0
7 0
5 14 6 0
5 14 0
6 15 0
6 0
6 15 5 0
5 0
5 0
6 0
10 0
10 0
10 0
10 0
10 0
10 0
4 0
4 3 0
3 0
4 0
3 0
4 0
3 9 0
4 3 9 0
3 0
4 0
4 3 9 0
4 0
4 0
3 9 0
4 3 0
3 0
3 0
4 0
4 3 9 0
4 0
4 0
3 9 0
4 3 0
3 0
2 -8 0
2 8 1 0
2 8 -1 0
2 0
1 0
16 -1 0
16 0
1 4 0
-1 4 0
4 0
1 0
13 -1 0
13 -1 0
13 0
13 0
10 0
10 0
10 0
10 0
10 0
10 0
10 0
10 0
10 0
4 0
4 0
4 0
4 0
4 0
4 0
4 0
4 -1 0
4 0
16 1 0
16 -1 0
16 0
4 0
4 0
1 0
-1 4 0
4 0
1 0
1 0
4 0
13 4 0
13 0
13 4 0
13 0
13 0
13 0
4 0
4 0
4 0
13 4 0
4 0
13 0
13 0
4 0
4 0
4 0
13 4 0
13 0
13 0
13 0
13 0
13 4 0
4 0
13 0
13 0
13 4 0
4 0
13 0
4 0
4 0
1 4 0
-1 4 0
4 0
5 14 0
5 14 6 0
6 0
6 15 5 0
6 15 0
5 0
-8 -13 2 0
2 8 1 0
13 2 1 0
13 1 0
2 1 8 13 0
2 8 -1 0
13 2 -1 0
13 -1 0
-1 2 8 13 0
13 0
2 0
7 0
7 0
16 1 0
16 -1 0
16 0
13 0
13 0
13 0
13 4 0
13 4 0
13 0
13 0
4 0
13 0
4 0
4 0
13 0
4 0
13 0
13 4 0
13 4 0
13 0
13 0
4 0
13 0
4 0
4 0
13 0
4 0
-8 2 0
2 8 1 0
2 8 -1 0
2 0
4 0
4 0
4 0
4 0
4 0
4 0
4 0
4 0
4 0
3 0
7 0
12 0
12 0
7 12 0
7 3 9 0
3 12 9 0
7 3 0
12 7 0
12 0
7 3 12 0
7 0
3 0
7 3 12 9 0
3 0
3 9 0
12 0
7 0
7 0
12 3 0
7 0
3 9 0
7 3 12 0
7 0
3 0
12 3 0
3 0
12 0
12 0
7 3 12 9 0
7 12 0
3 12 9 0
7 0
12 7 0
12 0
7 3 9 0
7 3 0
3 12 9 0
12 3 0
7 3 12 0
7 12 0
7 0
3 9 0
7 3 0
7 3 12 9 0
7 0
7 3 9 0
3 0
3 0
12 0
12 0
12 0
12 7 0
7 0
3 12 9 0
3 9 0
7 3 12 9 0
12 0
7 0
7 3 0
7 3 9 0
3 0
7 3 12 0
7 0
3 0
12 0
12 3 0
7 0
7 12 0
12 7 0
12 0
3 0
12 0
7 0
1 4 0
-1 4 0
4 0
16 1 0
16 -1 0
16 0
10 0
4 0
4 0
10 1 0
10 -1 0
10 0
3 9 0
3 9 0
3 9 0
1 0
4 0
2 0
3 0
3 0
2 8 0
4 2 0
2 4 8 0
3 9 0
4 0
2 0
4 0
2 0
4 0
3 9 0
4 0
4 0
2 0
3 0
2 0
4 0
2 4 8 0
2 8 0
4 2 0
2 8 0
4 0
2 0
2 0
4 0
4 0
2 4 8 0
3 9 0
4 2 0
3 0
4 0
3 9 0
4 2 0
3 0
2 8 0
2 4 8 0
4 0
4 0
2 0
2 0
10 0
10 7 0
7 0
10 0
7 0
7 10 0
10 0
10 7 0
7 0
10 0
7 0
7 10 0
12 0
7 0
11 0
3 0
2 0
7 0
11 0
3 0
11 0
12 0
7 12 0
12 0
3 0
3 12 9 0
7 3 0
12 0
12 3 0
7 3 12 0
3 9 0
11 2 0
11 0
2 8 11 0
2 0
7 3 12 9 0
2 8 0
2 0
12 7 0
7 3 9 0
7 0
7 0
12 0
2 8 11 0
2 0
11 0
3 0
7 3 12 0
11 0
7 12 0
12 7 0
11 2 0
2 0
12 0
7 3 9 0
11 0
7 3 12 9 0
7 3 0
2 8 0
3 12 9 0
3 9 0
3 0
12 0
7 0
12 3 0
7 0
7 0
7 0
3 9 0
3 0
11 2 0
11 0
7 0
7 3 12 0
2 8 0
7 3 12 9 0
7 0
7 12 0
12 7 0
2 0
12 0
3 12 9 0
2 8 11 0
7 3 0
11 0
11 0
12 3 0
2 0
7 3 9 0
12 0
3 0
12 0
7 0
12 7 0
3 12 9 0
7 3 0
7 0
2 8 0
7 3 9 0
11 2 0
11 0
7 3 12 9 0
3 9 0
3 0
7 12 0
11 0
2 0
7 0
3 0
12 0
12 3 0
11 0
12 0
7 3 12 0
2 8 11 0
12 0
2 0
7 0
11 0
2 0
12 0
3 0
2 -16 -8 0
2 1 16 0
2 8 1 0
16 1 0
2 1 16 8 0
-1 2 16 8 0
2 8 -1 0
-1 2 16 0
16 -1 0
16 0
2 0
1 13 0
13 -1 0
13 0
1 10 0
-1 10 0
10 0
1 0
-8 2 0
-8 2 0
2 -13 -4 -8 0
2 1 8 13 0
13 2 1 0
2 4 1 8 0
4 2 1 0
13 1 0
13 4 1 0
4 1 0
2 4 1 13 0
2 8 1 0
2 4 1 8 13 0
4 -1 0
-1 2 4 8 13 0
13 2 -1 0
13 -1 0
4 2 -1 0
-1 2 4 8 0
-1 2 4 13 0
2 8 -1 0
13 4 -1 0
-1 2 8 13 0
13 0
2 0
4 0
10 0
7 0
10 0
7 0
7 10 0
10 7 0
7 0
10 7 0
10 0
7 10 0
10 0
7 0
7 0
10 7 0
10 0
7 10 0
10 0
7 0
1 0
-8 2 0
2 8 1 0
2 8 -1 0
2 0
1 0
16 0
16 0
16 0
7 0
7 0
7 0
7 0
7 0
7 0
7 0
7 0
7 0
7 0
4 1 0
4 -1 0
4 0
7 1 0
7 -1 0
7 0
1 0
16 1 0
16 -1 0
16 0
10 0
10 0
10 0
10 0
10 0
10 0
10 0
10 0
10 0
10 0
10 0
10 0
10 0
10 1 0
10 0
10 0
10 -1 0
10 0
4 0
10 0
4 0
10 0
10 0
4 0
4 0
10 0
10 0
4 0
-8 2 0
2 8 1 0
2 8 -1 0
2 0
16 0
16 0
16 0
16 0
16 0
16 0
16 0
16 0
16 0
16 0
16 0
16 0
16 0
16 0
16 0
16 0
16 0
16 0
16 0
16 0
16 0
16 0
16 0
16 0
16 0
16 0
16 0
16 0
16 0
16 0
16 0
16 0
16 0
16 0
16 0
16 0
16 0
16 0
16 0
16 0
16 0
16 0
16 0
16 0
16 0
16 0
16 0
16 0
16 0
16 0
16 0
16 0
16 0
16 0
16 0
16 0
16 0
16 0
16 0
16 0
16 0
16 0
16 0
16 0
16 0
16 0
16 0
16 0
16 0
16 0
16 0
16 0
16 0
16 0
16 0
16 0
16 0
16 0
16 0
16 0
16 0
16 0
16 0
16 0
16 0
16 0
16 0
16 0
16 0
16 0
16 0
16 0
16 0
16 0
16 0
16 0
16 0
16 0
16 0
16 0
16 0
16 0
16 0
16 0
16 0
16 0
16 0
16 0
16 0
16 0
16 0
16 0
16 0
16 0
16 0
16 0
16 0
16 0
16 0
16 0
16 0
16 0
16 0
16 0
16 0
16 0
16 1 0
16 -1 0
16 0
1 0
16 -1 0
16 0
7 1 0
7 -1 0
7 0
4 1 0
4 -1 0
4 0
4 0
4 0
4 0
4 0
4 0
4 0
2 0
3 0
3 9 0
2 0
3 9 2 0
2 8 3 0
3 0
2 8 0
2 8 3 0
2 8 0
3 9 0
3 0
3 9 2 0
2 0
2 8 3 0
2 8 0
2 0
3 0
3 9 0
3 9 2 0
3 9 2 0
3 0
2 0
2 8 3 0
2 8 0
3 9 0
2 0
2 8 0
3 9 0
3 0
2 0
3 0
10 0
10 0
16 0
16 0
16 0
16 0
4 0
4 0
4 0
4 0
4 0
4 0
4 0
4 0
4 0
2 0
3 0
2 8 0
3 0
3 9 2 0
2 8 3 0
3 9 0
2 0
3 9 0
2 0
3 9 2 0
2 8 3 0
3 0
2 8 0
3 0
2 8 3 0
2 8 0
3 9 2 0
3 9 0
2 0
3 0
2 8 3 0
2 8 0
2 0
3 9 2 0
3 9 0
3 9 0
2 0
2 8 0
3 0
3 0
2 0
10 0
10 0
4 1 0
4 -1 0
4 0
2 -8 0
2 8 1 0
2 8 -1 0
2 0
1 10 0
-1 10 0
10 0
1 10 0
-1 10 0
10 0
7 1 0
7 -1 0
7 0
13 0
13 0
13 0
13 0
13 0
13 0
13 0
13 0
13 0
13 1 0
13 -1 0
13 0
2 -16 -8 0
2 8 1 0
16 1 0
2 1 16 8 0
2 1 16 0
-1 2 16 0
16 -1 0
2 8 -1 0
-1 2 16 8 0
16 0
2 0
4 0
4 0
10 0
10 0
7 1 0
7 -1 0
7 0
4 0
13 0
13 0
4 0
4 0
4 0
4 0
4 0
4 0
4 0
4 0
1 0
1 0
-8 2 0
2 8 1 0
2 8 -1 0
2 0
3 -9 0
3 9 0
3 0
3 9 1 0
3 9 0
3 0
3 9 -1 0
3 0
13 0
13 0
13 0
13 0
4 0
4 0
13 0
13 4 0
4 0
13 4 0
4 0
4 0
13 0
4 0
4 0
13 4 0
13 0
4 0
13 0
4 0
4 0
13 0
13 0
13 0
13 0
13 0
13 0
13 0
4 0
4 0
13 0
13 4 0
4 0
13 4 0
4 0
4 0
13 0
4 0
4 0
13 4 0
13 0
4 0
13 0
4 0
4 0
13 0
13 0
13 0
1 0
4 -1 0
4 -1 0
4 0
4 0
16 1 0
16 -1 0
16 0
3 0
2 0
2 0
3 0
2 8 0
3 0
2 0
2 0
3 9 0
3 0
3 9 0
2 0
2 0
2 8 0
2 0
3 0
2 0
3 9 0
3 0
3 0
2 8 0
2 0
2 0
3 0
2 0
3 9 0
2 8 0
2 0
10 1 0
10 -1 0
10 0
16 0
2 0
2 8 0
16 0
16 0
2 0
16 0
16 0
2 0
2 8 0
2 0
16 0
2 8 0
16 0
16 0
16 0
2 8 0
2 0
2 0
2 8 0
16 0
16 0
2 0
16 0
2 8 0
16 0
16 0
2 0
2 -13 -4 -8 0
2 4 1 8 0
2 8 1 0
13 2 1 0
2 4 1 13 0
13 1 0
4 2 1 0
13 4 1 0
4 1 0
2 1 8 13 0
2 4 1 8 13 0
-1 2 8 13 0
4 -1 0
4 2 -1 0
13 2 -1 0
-1 2 4 13 0
2 8 -1 0
-1 2 4 8 0
13 4 -1 0
13 -1 0
-1 2 4 8 13 0
13 0
2 0
4 0
4 0
4 0
4 -1 0
16 1 0
16 -1 0
16 0
16 0
16 0
-8 0
2 0
13 0
-8 0
2 0
13 0
1 0
4 -1 0
4 0
10 0
10 0
13 0
13 0
13 0
13 0
13 0
13 0
13 0
13 0
13 0
4 0
4 0
4 0
4 0
4 0
4 0
4 0
4 0
4 0
13 0
13 0
13 0
13 0
13 0
13 0
13 0
13 0
13 0
-8 2 0
2 8 1 0
2 8 -1 0
2 0
4 0
4 0
4 0
4 0
4 0
4 0
4 0
4 0
4 0
7 1 0
7 -1 0
7 0
10 0
10 1 0
10 -1 0
10 0
5 14 0
6 15 0
5 0
6 0
6 0
5 0
1 0
-8 0
2 0
13 0
-8 0
2 0
13 0
1 10 0
-1 10 0
10 0
10 0
10 0
10 0
10 0
2 -8 0
2 8 1 0
2 8 -1 0
2 0
1 4 0
-1 4 0
4 0
10 0
10 0
3 0
2 0
3 0
3 9 0
2 8 0
3 9 2 0
2 0
2 8 3 0
2 0
3 9 2 0
3 0
2 8 0
2 8 3 0
3 9 0
3 9 2 0
3 9 0
2 0
2 8 3 0
3 0
2 8 0
3 9 2 0
2 8 3 0
3 0
3 9 0
2 0
2 8 0
2 8 0
3 9 0
3 9 2 0
3 0
2 0
2 8 3 0
3 0
2 0
10 0
10 0
10 0
10 0
10 0
10 0
10 0
10 0
10 0
3 0
2 0
3 0
2 0
3 9 0
2 8 0
2 0
2 0
3 0
2 0
3 0
3 0
2 0
3 9 0
2 8 0
2 0
2 0
2 8 0
3 0
3 0
2 0
2 0
3 9 0
3 9 0
3 0
2 0
2 8 0
2 0
3 0
2 0
10 0
10 0
10 0
4 0
4 0
15 1 5 6 0
1 14 5 6 0
5 14 1 0
6 15 1 0
5 -1 0
6 -1 0
5 0
5 14 0
5 14 0
6 15 0
6 15 0
6 0
5 14 6 0
6 15 5 0
5 6 0
6 0
5 0
1 0
10 0
10 0
10 0
10 0
10 0
10 0
10 0
10 0
10 0
10 0
10 0
10 0
10 0
10 0
10 0
10 0
10 0
4 1 0
4 1 0
4 1 0
4 -1 0
4 -1 0
4 0
6 15 5 0
5 0
6 15 0
5 14 0
6 0
5 14 6 0
6 0
5 0
1 0
7 0
7 0
7 0
7 0
7 0
7 0
7 0
7 0
7 1 0
7 -1 0
7 0
10 0
10 0
10 0
10 0
10 0
10 0
10 0
10 0
10 0
2 0
3 0
2 8 3 0
2 8 0
2 0
3 9 2 0
3 9 0
3 0
3 0
2 8 0
2 8 3 0
3 9 0
3 9 2 0
2 0
2 0
3 0
3 9 0
2 8 3 0
3 9 2 0
2 8 0
2 0
3 9 0
2 8 3 0
3 0
3 9 2 0
2 8 0
3 9 0
2 8 0
2 0
3 0
3 0
2 0
1 0
-1 4 0
4 0
4 0
2 0
4 0
4 2 0
2 8 0
2 8 4 0
2 0
4 0
4 0
2 8 0
2 8 4 0
2 0
4 2 0
4 0
4 2 0
2 8 0
4 0
2 8 4 0
2 0
4 0
4 0
4 2 0
2 8 0
4 0
2 0
2 8 4 0
4 0
2 0
5 14 6 0
6 0
5 14 0
6 15 0
6 15 5 0
5 0
5 14 6 0
5 14 0
6 15 5 0
6 15 0
5 14 6 0
5 0
6 15 0
6 15 5 0
5 14 0
6 0
6 0
5 0
13 0
13 0
13 0
13 0
13 0
1 10 0
-1 10 0
10 0
-8 2 0
2 8 1 0
2 8 -1 0
2 0
-8 2 0
2 8 1 0
2 8 -1 0
2 0
1 0
2 0
2 8 0
2 0
2 8 0
2 0
2 8 0
2 0
2 0
2 8 0
2 0
3 0
2 0
2 8 0
2 8 3 0
3 9 0
3 0
3 9 2 0
2 0
3 0
3 9 2 0
2 8 0
3 9 0
2 8 3 0
2 0
2 8 0
3 9 2 0
3 0
2 0
2 8 3 0
3 9 0
2 8 3 0
3 9 0
3 9 2 0
3 0
2 8 0
2 0
2 8 0
3 9 0
3 0
2 0
2 0
3 0
3 9 0
1 0
3 9 1 0
1 0
1 3 0
3 0
3 9 1 0
1 0
3 9 0
1 3 0
2 -13 -8 0
2 8 1 0
13 1 0
13 2 1 0
2 1 8 13 0
13 -1 0
2 8 -1 0
-1 2 8 13 0
13 2 -1 0
2 0
13 0
4 1 0
1 13 0
1 10 0
4 -1 0
-1 13 0
-1 10 0
4 0
13 0
10 0
7 0
12 0
3 0
7 3 0
3 0
7 3 12 9 0
3 12 9 0
7 12 0
7 0
7 0
7 0
12 0
12 7 0
7 3 9 0
7 3 12 0
3 9 0
12 0
12 3 0
3 0
12 0
7 3 12 9 0
3 12 9 0
3 9 0
7 0
12 0
7 3 9 0
12 0
12 3 0
7 0
7 3 0
7 12 0
7 0
7 3 12 0
12 7 0
3 0
12 0
3 0
7 0
12 0
3 12 9 0
12 3 0
7 0
12 0
12 0
3 0
7 3 9 0
7 0
7 3 12 0
3 9 0
7 3 12 9 0
3 0
7 12 0
12 7 0
7 3 0
12 3 0
7 3 12 0
7 0
3 0
3 9 0
7 3 12 9 0
3 0
7 3 9 0
12 0
12 0
3 12 9 0
7 0
12 0
7 3 0
7 12 0
12 7 0
7 0
12 0
7 0
3 0
2 -13 -4 -8 0
4 2 1 0
13 2 1 0
2 4 1 8 0
2 1 8 13 0
13 1 0
2 4 1 13 0
4 1 0
2 4 1 8 13 0
2 8 1 0
13 4 1 0
13 4 -1 0
2 8 -1 0
-1 2 8 13 0
-1 2 4 13 0
4 -1 0
-1 2 4 8 0
4 2 -1 0
13 2 -1 0
-1 2 4 8 13 0
13 -1 0
13 0
2 0
4 0
1 0
2 8 -1 0
2 8 0
10 0
10 0
10 0
10 0
10 0
10 0
10 0
10 0
10 0
10 0
10 0
10 0
10 0
10 0
10 0
10 0
10 0
10 0
10 0
10 0
10 0
10 0
10 0
10 0
10 0
10 0
10 0
10 0
10 0
10 0
10 0
10 0
1 0
-1 4 13 0
13 -1 0
4 -1 0
13 -1 0
4 -1 0
13 4 -1 0
13 4 0
13 0
4 0
4 0
4 13 0
13 0
-8 0
2 0
13 0
-8 0
2 0
13 0
16 1 0
16 -1 0
16 0
1 0
3 0
4 3 0
3 9 0
4 0
4 3 9 0
4 0
4 0
3 0
4 3 9 0
3 9 0
4 0
4 3 0
4 0
4 3 9 0
4 3 0
3 0
4 0
3 9 0
4 0
4 0
3 9 0
4 3 0
3 0
4 3 9 0
4 0
4 0
4 0
4 0
4 0
4 0
4 0
4 0
4 0
16 1 0
16 -1 0
16 0
13 0
16 0
16 0
16 0
10 0
4 0
7 0
10 0
13 0
7 0
4 0
4 0
13 0
4 0
13 4 0
10 0
4 0
7 0
10 0
13 0
7 0
4 0
4 0
13 0
4 0
13 4 0
3 0
11 0
12 0
7 0
2 0
3 0
7 3 12 0
12 7 0
12 0
12 3 0
12 0
3 9 0
2 8 11 0
3 0
3 12 9 0
7 0
11 2 0
7 3 0
7 12 0
11 0
7 3 9 0
7 3 12 9 0
7 0
7 0
2 0
12 0
2 0
2 8 0
11 0
11 0
7 3 0
7 0
12 0
3 9 0
3 0
7 3 12 9 0
11 2 0
11 0
12 0
7 3 12 0
7 3 9 0
12 0
12 3 0
12 7 0
3 12 9 0
2 0
7 0
2 8 11 0
11 0
7 0
2 0
3 0
7 12 0
2 8 0
11 0
12 0
3 0
7 0
7 3 12 9 0
11 0
7 0
7 12 0
11 0
12 0
7 3 12 0
12 7 0
11 2 0
2 8 0
3 12 9 0
3 9 0
7 3 0
7 3 9 0
12 0
12 3 0
2 0
3 0
7 0
11 0
2 8 11 0
2 0
12 7 0
3 12 9 0
2 8 0
11 0
12 0
3 9 0
12 0
7 12 0
3 0
7 0
7 3 12 9 0
2 0
11 0
7 3 0
2 8 11 0
12 3 0
11 0
7 3 12 0
7 3 9 0
7 0
3 0
2 0
7 0
12 0
11 2 0
4 1 0
4 -1 0
4 0
16 0
16 0
16 0
1 0
16 1 0
16 -1 0
16 0
1 0
12 0
3 0
7 0
2 0
11 0
7 0
12 0
7 0
7 3 12 0
3 9 0
7 3 0
11 2 0
2 8 0
7 0
7 3 9 0
7 3 12 9 0
11 0
12 3 0
3 12 9 0
12 7 0
3 0
2 0
11 0
12 0
12 0
3 0
2 0
7 12 0
2 8 11 0
11 0
12 0
11 0
11 0
7 3 12 0
11 0
7 0
7 12 0
12 3 0
3 12 9 0
2 0
7 0
2 8 0
3 9 0
7 3 9 0
12 0
7 3 12 9 0
7 3 0
2 0
12 7 0
2 8 11 0
11 2 0
7 0
3 0
12 0
3 0
3 9 0
12 0
11 0
7 3 9 0
2 0
12 0
11 0
2 0
11 0
7 3 12 0
3 0
7 0
12 3 0
7 3 0
2 8 11 0
7 0
7 3 12 9 0
2 8 0
12 7 0
3 12 9 0
7 0
7 12 0
3 0
11 2 0
12 0
11 0
3 12 9 0
7 0
7 0
2 0
2 8 11 0
3 9 0
3 0
11 2 0
12 7 0
12 0
7 0
7 3 0
7 3 12 9 0
2 0
3 0
7 12 0
7 3 12 0
11 0
2 8 0
11 0
12 0
12 0
12 3 0
7 3 9 0
4 0
4 0
4 0
4 0
4 0
4 0
4 0
4 0
4 0
10 0
10 0
13 0
13 0
13 0
-8 0
2 0
13 0
13 0
13 0
-8 0
2 0
2 0
4 0
3 0
3 0
4 0
4 2 0
2 0
3 9 0
4 0
2 8 4 0
2 8 0
2 8 0
3 9 0
3 0
2 0
4 2 0
4 0
4 0
2 8 4 0
4 2 0
2 8 4 0
2 0
4 0
4 0
2 8 0
3 0
3 9 0
3 9 0
2 8 4 0
2 0
3 0
4 2 0
4 0
2 8 0
4 0
3 0
2 0
4 0
7 1 0
7 -1 0
7 0
10 0
13 0
10 0
13 0
13 0
10 0
10 0
13 0
10 0
13 0
10 0
13 0
13 0
10 0
13 0
10 0
10 0
13 0
7 0
7 0
7 0
7 0
7 0
7 0
7 0
7 0
7 0
7 0
7 0
7 0
7 0
7 0
7 0
7 0
7 0
7 0
7 0
7 0
7 0
7 0
7 0
7 0
7 0
7 0
7 0
7 0
7 0
10 0
10 0
16 1 0
16 -1 0
16 0
-8 -13 2 0
2 8 1 0
13 2 1 0
13 1 0
2 1 8 13 0
2 8 -1 0
13 2 -1 0
13 -1 0
-1 2 8 13 0
13 0
2 0
4 0
4 0
4 0
4 0
4 0
4 0
4 0
4 0
4 0
6 15 0
5 14 0
5 0
6 15 5 0
6 0
5 14 6 0
5 0
6 0
10 1 0
10 -1 0
10 0
2 -8 0
2 8 1 0
2 8 -1 0
2 0
5 0
6 15 0
5 14 6 0
6 0
5 14 0
6 15 5 0
6 0
5 0
16 0
16 0
6 15 5 0
5 0
5 14 6 0
6 0
6 15 0
5 14 0
6 0
5 0
10 0
10 0
10 0
10 0
10 0
10 0
10 0
10 0
10 0
1 0
7 -1 0
-1 4 0
4 7 -1 0
-1 4 7 0
4 7 0
4 0
7 4 0
7 0
1 0
7 1 0
7 -1 0
7 0
1 0
2 0
11 0
7 0
12 0
3 0
3 0
12 7 0
7 3 12 0
3 12 9 0
12 3 0
11 0
2 0
3 0
7 12 0
7 3 12 9 0
2 8 0
12 0
12 0
2 8 11 0
11 0
2 0
7 0
7 3 9 0
11 2 0
3 9 0
7 3 0
7 0
12 0
7 0
11 0
2 8 11 0
7 3 12 9 0
3 12 9 0
11 0
7 0
3 0
2 8 0
11 2 0
11 0
7 0
12 0
7 12 0
3 0
2 0
7 3 9 0
3 9 0
2 0
12 0
11 0
12 7 0
7 0
12 0
12 3 0
7 3 0
7 3 12 0
7 0
2 8 11 0
12 7 0
7 3 9 0
11 0
11 0
12 0
2 8 0
2 0
7 0
12 0
7 3 12 9 0
11 2 0
3 0
11 0
2 0
7 3 12 0
12 3 0
7 3 0
12 0
3 12 9 0
3 9 0
7 0
3 0
7 12 0
2 0
12 0
11 2 0
3 0
2 0
2 8 0
7 3 9 0
2 8 11 0
3 12 9 0
12 3 0
12 0
11 0
7 12 0
12 7 0
3 9 0
7 0
7 3 12 0
7 3 0
12 0
7 0
7 0
11 0
7 3 12 9 0
11 0
3 0
7 0
2 0
11 0
12 0
3 0
13 0
13 0
13 0
13 0
13 0
13 0
13 0
13 0
13 0
1 0
10 0
10 0
16 0
16 1 0
16 -1 0
16 0
13 0
13 0
13 0
13 0
13 0
13 0
13 0
13 0
13 0
2 -13 -8 0
13 1 0
13 2 1 0
2 1 8 13 0
2 8 1 0
13 2 -1 0
13 -1 0
-1 2 8 13 0
2 8 -1 0
2 0
13 0
10 0
10 0
1 0
-1 4 13 0
13 -1 0
13 4 -1 0
4 -1 0
13 -1 0
4 -1 0
4 13 0
4 0
13 4 0
13 0
13 0
4 0
2 -8 0
2 8 1 0
2 8 -1 0
2 0
16 0
16 0
16 0
16 0
16 0
16 0
16 0
16 0
4 0
4 0
4 0
4 0
4 0
4 0
4 0
4 0
4 0
7 0
5 0
6 0
7 0
5 14 6 0
6 0
7 0
6 15 5 0
6 15 0
5 0
5 14 0
6 15 5 0
5 0
6 0
7 0
6 15 0
5 14 6 0
5 14 0
7 0
5 14 6 0
5 14 0
7 0
5 0
6 15 5 0
7 0
6 0
6 15 0
5 0
6 15 0
6 0
7 0
6 15 5 0
5 14 0
7 0
5 14 6 0
5 0
6 0
7 0
13 0
13 0
13 0
13 0
13 0
13 0
13 0
13 0
13 0
3 -9 0
3 9 1 0
3 9 -1 0
3 0
13 1 0
13 -1 0
13 0
11 0
4 0
3 0
2 0
11 0
3 0
4 0
3 0
4 3 9 0
4 3 0
3 9 0
11 0
4 0
2 8 0
2 0
4 0
11 0
4 3 9 0
3 0
4 0
2 0
11 0
2 8 0
4 0
3 9 0
11 0
4 0
3 0
4 3 0
11 0
4 0
11 0
3 0
2 0
4 3 9 0
4 3 0
3 0
11 0
3 9 0
4 0
11 0
2 8 0
4 0
11 0
3 9 0
4 0
3 0
4 0
4 3 0
4 0
11 0
3 0
2 0
11 0
4 3 9 0
2 8 0
-8 2 0
2 8 1 0
2 8 -1 0
2 0
1 0
4 0
4 0
4 0
4 0
16 0
16 1 0
16 -1 0
16 0
4 0
4 0
4 0
4 0
4 0
4 0
4 0
4 0
4 0
7 1 0
7 -1 0
7 0
3 0
3 0
3 9 0
3 9 0
3 0
3 9 0
3 0
3 9 0
3 0
3 0
4 1 0
4 -1 0
4 0
2 8 0
2 8 0
2 8 0
2 8 0
3 0
2 0
3 0
3 9 0
2 0
2 8 0
2 0
3 0
2 0
3 0
3 9 0
3 0
2 8 0
2 0
2 0
2 0
3 0
3 0
2 8 0
3 9 0
3 9 0
2 0
3 0
2 8 0
2 0
3 0
7 1 0
7 -1 0
7 0
2 -16 -8 0
2 1 16 0
2 1 16 8 0
2 8 1 0
16 1 0
2 8 -1 0
-1 2 16 8 0
16 -1 0
-1 2 16 0
16 0
2 0
6 0
5 0
7 0
15 5 6 0
5 0
7 0
6 15 0
5 14 0
6 0
5 0
7 0
14 5 6 0
6 0
7 0
7 0
5 14 0
6 15 0
14 5 6 0
6 0
5 0
5 0
7 0
7 0
6 0
15 5 6 0
7 0
15 5 6 0
5 0
6 0
14 5 6 0
7 0
5 0
6 15 0
7 0
5 14 0
6 0
6 0
6 15 0
7 0
6 0
7 0
5 14 0
7 0
5 0
14 5 6 0
15 5 6 0
5 0
10 1 0
10 -1 0
10 0
1 0
2 8 -1 0
2 8 0
12 0
2 0
11 0
3 0
7 0
12 3 0
12 0
7 3 12 0
7 0
7 3 12 9 0
3 12 9 0
2 0
11 0
12 0
2 0
2 8 0
7 12 0
3 9 0
7 0
7 0
7 3 0
3 0
11 0
2 8 11 0
11 0
12 7 0
12 0
11 2 0
3 0
7 3 9 0
7 3 0
3 0
2 8 0
7 3 9 0
12 7 0
7 0
7 12 0
2 0
11 0
2 0
12 0
7 3 12 9 0
11 2 0
2 8 11 0
12 0
11 0
12 3 0
7 0
12 0
7 0
3 12 9 0
3 0
11 0
7 3 12 0
3 9 0
12 0
7 0
3 9 0
11 0
12 0
7 3 12 9 0
2 8 0
7 3 12 0
12 3 0
3 12 9 0
11 0
12 7 0
2 8 11 0
11 0
7 3 0
7 0
7 0
11 2 0
12 0
7 12 0
7 3 9 0
3 0
2 0
2 0
3 0
2 0
11 0
2 0
11 0
3 0
2 8 0
11 2 0
12 0
12 3 0
3 0
11 0
7 3 0
7 3 9 0
7 12 0
12 0
2 8 11 0
3 9 0
7 3 12 0
3 12 9 0
7 0
7 3 12 9 0
12 0
7 0
12 7 0
7 0
12 0
2 0
3 0
11 0
7 0
1 0
4 0
2 0
3 0
3 0
2 0
3 9 0
4 0
2 0
2 4 8 0
4 0
2 0
2 8 0
4 0
2 4 0
4 0
2 4 8 0
2 0
4 0
2 4 0
2 0
3 0
4 0
2 0
2 8 0
3 9 0
4 0
4 0
4 0
4 0
2 0
2 0
2 8 0
2 0
2 4 0
4 0
2 4 8 0
3 9 0
4 0
3 0
2 0
2 4 8 0
2 0
2 8 0
2 4 0
2 0
3 0
4 0
4 0
4 0
3 9 0
4 0
5 14 6 0
6 15 0
6 0
5 14 0
6 15 5 0
5 0
6 0
5 0
6 15 0
5 14 6 0
5 14 0
6 15 5 0
7 0
7 0
7 0
7 0
-8 2 0
2 8 1 0
2 8 -1 0
2 0
-8 2 0
2 8 1 0
2 8 -1 0
2 0
10 0
10 0
7 1 0
7 -1 0
7 0
-8 -13 2 0
2 8 1 0
13 2 1 0
13 1 0
2 1 8 13 0
2 8 -1 0
13 2 -1 0
13 -1 0
-1 2 8 13 0
13 0
2 0
1 0
2 8 -1 0
13 -1 0
13 2 -1 0
-1 2 8 13 0
2 8 13 0
13 0
2 8 0
13 2 0
1 4 0
-1 4 0
4 0
5 14 6 0
6 15 5 0
6 15 0
5 0
6 0
5 14 0
5 0
6 0
-14 5 -15 0
-6 -14 5 0
-14 -15 6 0
-5 -15 6 0
6 15 1 0
5 14 1 0
1 14 5 6 0
15 1 5 6 0
-1 14 5 6 0
-1 15 5 6 0
5 14 -1 0
6 15 -1 0
5 0
6 0
4 0
4 0
4 0
4 0
4 0
4 -1 0
4 0
1 0
10 0
10 0
10 0
10 0
10 0
10 0
10 0
10 0
10 0
10 0
10 0
6 0
6 15 5 0
5 0
6 15 0
5 14 0
5 14 6 0
5 0
6 0
10 0
10 0
7 0
7 0
7 0
7 0
7 0
7 0
7 0
7 0
7 0
7 0
10 0
10 0
10 0
10 0
10 0
10 0
4 0
4 0
4 0
4 0
4 0
4 0
4 0
4 0
10 1 0
10 -1 0
10 0
6 15 0
5 14 0
6 15 5 0
6 0
5 14 6 0
5 0
6 0
5 0
1 4 0
-1 4 0
4 0
3 0
4 0
4 0
3 9 0
3 0
4 0
4 0
3 9 0
4 0
3 0
4 0
4 0
3 9 0
3 0
4 0
3 0
4 0
3 9 0
4 0
3 0
10 0
10 0
10 1 0
10 -1 0
10 0
1 4 0
-1 4 0
4 0
1 13 0
-1 13 0
13 0
7 1 0
7 -1 0
7 0
1 4 0
-1 4 0
4 0
2 -8 0
2 0
2 8 0
2 8 0
2 0
2 8 0
2 0
2 8 0
2 0
2 0
16 0
16 0
16 0
16 0
16 1 0
16 -1 0
16 0
2 0
3 0
2 0
3 9 2 0
2 8 0
3 9 0
2 8 3 0
3 0
3 9 2 0
3 9 0
2 8 0
2 8 3 0
2 0
3 0
2 8 3 0
3 0
2 8 0
3 9 2 0
2 0
3 9 0
3 9 2 0
3 0
2 8 3 0
2 0
2 8 0
3 9 0
2 0
3 9 0
2 8 0
3 0
2 0
3 0
10 1 0
10 -1 0
10 0
4 0
4 0
10 0
10 0
7 3 12 0
3 0
3 9 0
7 3 12 9 0
7 12 0
12 3 0
12 0
7 3 9 0
7 0
3 12 9 0
7 0
3 0
12 0
12 7 0
12 0
7 3 0
7 0
7 3 12 0
3 0
3 9 0
7 3 12 9 0
7 12 0
12 3 0
12 0
7 3 9 0
7 0
3 12 9 0
7 0
3 0
12 0
12 7 0
12 0
7 3 0
7 0
1 0
5 14 0
5 0
6 0
5 14 6 0
6 15 5 0
6 15 0
5 0
6 0
4 0
4 0
1 0
16 -1 0
16 0
16 1 0
16 -1 0
16 0
16 0
2 -16 -8 0
2 1 16 0
2 8 1 0
16 1 0
2 1 16 8 0
16 -1 0
2 8 -1 0
-1 2 16 0
-1 2 16 8 0
16 0
2 0
10 0
10 0
10 0
10 0
10 0
10 0
10 0
10 0
10 0
10 0
10 0
10 0
10 0
10 0
10 0
10 0
10 0
10 0
1 0
10 0
10 0
10 0
2 -8 0
2 8 1 0
2 8 -1 0
2 0
4 0
4 0
4 0
4 0
4 0
4 0
4 0
4 0
4 0
4 0
4 0
4 0
4 0
13 0
2 8 0
2 8 13 0
13 2 0
2 8 0
13 0
2 8 13 0
13 2 0
2 8 13 0
13 2 0
2 8 0
13 0
4 0
4 0
4 0
4 0
4 0
4 0
4 0
4 0
4 0
1 0
7 1 0
7 -1 0
7 0
3 0
2 0
11 0
12 0
7 0
11 0
12 0
7 0
2 0
7 3 12 9 0
7 0
3 12 9 0
3 0
2 0
7 3 9 0
7 12 0
11 0
7 0
3 9 0
11 2 0
7 3 0
2 8 0
12 7 0
12 0
12 0
11 0
3 0
12 3 0
2 8 11 0
7 3 12 0
3 0
3 9 0
7 12 0
3 12 9 0
12 0
7 3 12 9 0
11 0
12 0
3 0
7 3 9 0
7 0
11 0
11 2 0
7 0
11 0
2 0
7 3 12 0
7 0
2 8 0
7 3 0
12 7 0
2 0
12 3 0
12 0
2 8 11 0
7 0
7 3 12 0
2 8 0
3 0
3 12 9 0
11 0
11 2 0
12 0
11 0
11 0
3 9 0
7 3 0
12 0
3 0
7 0
2 0
7 12 0
2 8 11 0
12 7 0
12 3 0
12 0
7 0
7 3 9 0
2 0
7 3 12 9 0
7 12 0
2 8 11 0
7 3 12 9 0
7 0
12 7 0
12 0
11 2 0
11 0
3 12 9 0
7 3 12 0
11 0
2 8 0
3 0
11 0
2 0
12 0
7 0
3 0
12 3 0
7 3 9 0
3 9 0
2 0
12 0
7 3 0
7 0
12 0
7 0
2 0
11 0
3 0
16 1 0
16 -1 0
16 0
10 1 0
10 -1 0
10 0
13 1 0
13 -1 0
13 0
10 0
10 0
10 1 0
10 -1 0
10 0
1 0
-1 10 0
10 0
7 1 0
7 -1 0
7 0
1 0
10 0
10 0
10 1 0
-1 10 0
10 0
2 -13 -8 0
2 0
13 0
13 0
2 8 0
13 0
2 0
13 0
2 8 0
13 0
2 8 0
13 0
2 0
2 0
2 8 0
13 0
13 0
13 0
2 0
4 0
4 0
4 0
4 0
4 0
4 0
4 0
4 0
4 0
4 0
3 0
2 0
3 9 2 0
3 0
2 8 3 0
3 9 0
2 0
2 8 0
3 9 2 0
2 8 0
3 0
3 9 0
2 8 3 0
2 0
3 9 2 0
3 0
3 9 0
2 8 3 0
2 8 0
2 0
2 8 0
3 0
3 9 0
2 0
3 0
2 0
-8 0
2 0
-8 0
2 0
7 1 0
7 -1 0
7 0
5 14 0
6 0
5 14 6 0
6 15 5 0
5 0
6 15 0
5 0
6 0
6 15 0
6 15 5 0
5 0
5 14 6 0
6 0
5 14 0
5 0
6 0
1 0
13 0
4 0
4 0
13 4 0
13 0
13 0
4 0
13 0
4 3 9 0
4 0
13 0
4 0
13 4 0
13 0
4 0
13 4 0
4 0
13 0
4 0
13 0
13 0
4 0
13 4 0
4 0
13 0
13 4 0
4 0
4 0
13 0
13 4 0
3 9 0
13 0
13 0
13 0
13 0
13 0
13 0
13 0
13 0
4 0
13 0
13 0
13 0
4 0
13 0
13 4 0
4 0
4 0
13 0
4 0
13 0
4 0
13 0
4 0
13 4 0
4 0
4 0
4 3 0
13 0
13 0
4 0
4 0
4 0
4 0
4 0
4 0
13 0
13 4 0
4 0
4 0
13 0
13 0
4 0
13 0
4 0
13 0
13 0
13 4 0
4 0
13 4 0
13 0
13 4 0
4 0
4 0
13 0
13 0
13 0
4 0
4 0
13 4 0
13 0
4 0
13 0
13 0
13 0
13 0
13 0
13 4 0
13 0
13 0
13 0
4 0
3 0
13 4 0
4 0
4 0
13 0
13 0
4 0
4 0
13 0
13 0
13 0
13 0
13 0
4 0
4 0
13 0
4 0
13 4 0
13 4 0
13 0
13 0
4 0
13 0
4 0
4 0
13 0
4 0
4 0
13 4 0
13 0
13 0
4 0
13 0
13 0
4 0
4 0
13 4 0
4 0
13 0
13 0
4 0
13 0
13 0
4 0
13 0
13 0
13 0
13 0
4 0
13 0
13 0
4 0
13 4 0
13 0
4 0
4 0
4 0
13 0
13 0
3 0
4 0
13 0
13 0
4 0
13 0
13 0
4 0
4 0
13 0
4 3 0
4 0
4 0
13 4 0
4 0
13 0
13 0
13 0
4 3 9 0
13 4 0
4 0
13 4 0
4 0
13 0
13 4 0
13 0
13 0
13 0
13 0
13 4 0
13 0
4 0
13 0
13 0
13 0
4 0
13 0
4 0
13 0
3 9 0
13 4 0
4 0
13 0
13 4 0
4 0
13 0
4 0
13 0
13 0
13 4 0
13 0
13 0
4 0
13 0
13 0
4 0
13 0
4 0
13 0
4 0
4 0
13 4 0
4 0
4 0
4 0
13 4 0
13 0
13 0
13 4 0
13 4 0
13 0
13 0
4 0
13 0
13 0
13 4 0
4 0
13 0
4 3 0
13 0
4 0
13 4 0
4 0
13 0
13 0
4 0
13 0
4 0
13 4 0
4 0
4 0
13 0
13 0
4 0
4 0
13 4 0
13 0
4 0
4 0
13 0
13 0
4 0
4 0
4 0
13 0
4 3 9 0
13 0
13 0
13 0
4 0
13 0
13 0
4 0
4 0
13 0
4 0
13 0
13 0
4 0
13 0
13 0
13 0
13 0
13 0
4 0
4 0
4 0
4 0
13 0
13 0
13 0
3 9 0
13 0
13 4 0
4 0
13 0
13 0
4 0
4 0
13 4 0
13 0
4 0
4 0
13 0
13 0
4 0
13 4 0
4 0
4 0
13 0
4 0
13 0
13 0
3 0
13 4 0
13 0
4 0
4 0
13 0
4 0
13 0
13 0
4 0
4 0
13 4 0
13 0
13 0
13 0
13 4 0
4 0
4 0
13 0
4 0
13 4 0
13 0
13 0
13 4 0
13 0
4 0
13 0
13 0
13 4 0
10 0
10 0
10 0
10 0
10 0
10 0
10 0
10 0
10 1 0
-1 10 0
10 0
16 1 0
16 -1 0
16 0
5 14 6 0
5 0
6 0
6 15 0
5 14 0
6 15 5 0
6 0
5 0
10 0
10 0
10 0
10 0
10 0
10 0
10 0
10 0
10 0
10 0
10 0
1 0
10 1 0
-1 10 0
10 0
4 0
4 0
4 0
4 0
4 0
4 0
4 0
4 0
4 0
1 0
16 -1 0
16 0
1 0
1 0
2 8 -1 0
13 2 -1 0
13 -1 0
-1 2 8 13 0
2 8 0
13 2 0
13 0
2 8 13 0
3 0
2 0
4 0
3 9 0
2 8 3 0
2 4 0
2 0
3 0
3 9 0
3 9 2 0
2 8 0
2 0
2 4 8 0
4 0
4 0
2 8 0
3 0
2 0
2 4 8 0
3 9 0
2 0
2 4 0
3 9 2 0
2 0
2 0
2 8 0
4 0
4 0
2 8 3 0
3 0
3 9 0
3 0
2 8 0
4 0
2 0
3 0
3 9 0
2 8 3 0
2 8 0
3 9 2 0
2 8 0
2 0
2 4 0
4 0
3 9 0
3 9 0
2 0
3 0
4 0
4 0
2 0
2 4 8 0
3 0
2 8 0
2 0
3 0
7 1 0
7 -1 0
7 0
1 4 0
-1 4 0
4 0
16 0
13 0
16 0
16 0
16 0
16 0
16 0
16 0
16 0
16 0
16 0
16 0
16 0
13 0
16 0
16 0
16 0
16 0
16 0
13 0
16 0
16 0
16 0
16 0
13 0
16 0
16 0
16 0
16 0
16 0
16 0
13 0
13 0
13 0
3 0
11 0
2 0
4 0
3 0
3 0
11 0
2 0
11 0
4 0
11 0
4 3 0
3 9 0
2 8 0
4 0
4 3 9 0
4 0
4 3 0
4 0
2 0
3 0
2 8 0
11 0
4 0
11 0
11 0
4 3 9 0
3 9 0
4 0
3 0
3 0
3 9 0
11 0
4 0
4 0
4 3 9 0
11 0
2 8 0
4 3 0
4 0
3 0
11 0
2 0
2 0
2 8 0
4 0
3 0
3 0
4 3 0
4 3 9 0
3 9 0
11 0
11 0
4 0
4 0
11 0
1 0
16 -1 0
16 0
3 0
7 0
2 0
11 0
12 0
3 9 0
11 0
7 0
3 12 9 0
12 0
12 0
12 7 0
11 0
11 0
3 0
2 0
7 3 12 0
7 3 9 0
7 12 0
7 3 12 9 0
7 0
2 0
12 0
3 0
7 0
11 2 0
7 3 0
12 3 0
2 8 11 0
2 8 0
7 12 0
3 9 0
11 2 0
12 0
7 0
7 0
7 3 12 0
7 3 0
12 0
12 0
11 0
3 0
2 0
3 0
2 0
7 0
2 8 0
2 8 11 0
11 0
7 3 9 0
3 12 9 0
7 3 12 9 0
12 7 0
11 0
12 3 0
3 9 0
12 0
11 0
3 0
12 0
7 3 12 0
2 0
7 3 0
11 0
7 3 12 9 0
7 0
7 3 9 0
12 3 0
7 0
2 0
12 7 0
7 12 0
2 8 0
11 0
2 8 11 0
3 12 9 0
3 0
7 0
12 0
11 2 0
11 0
2 8 11 0
7 0
3 9 0
12 0
7 0
7 3 0
12 0
7 3 12 0
11 2 0
12 3 0
11 0
2 8 0
3 0
7 3 12 9 0
12 0
2 0
7 12 0
3 0
3 12 9 0
12 7 0
7 0
11 0
7 3 9 0
2 0
10 0
10 0
10 0
10 0
13 0
13 0
13 0
13 0
13 0
13 0
13 0
13 0
13 0
1 0
10 0
10 0
10 0
10 0
10 0
10 0
-8 2 0
2 8 1 0
2 8 -1 0
2 0
10 1 0
10 -1 0
10 0
2 -13 -4 -8 0
2 8 1 0
13 1 0
2 1 8 13 0
4 2 1 0
13 4 1 0
2 4 1 8 13 0
2 4 1 13 0
4 1 0
2 4 1 8 0
13 2 1 0
2 8 -1 0
13 -1 0
-1 2 8 13 0
-1 2 4 8 13 0
4 2 -1 0
13 4 -1 0
-1 2 4 13 0
13 2 -1 0
-1 2 4 8 0
4 -1 0
13 0
2 0
4 0
3 0
2 0
3 9 2 0
2 8 0
3 9 0
2 8 3 0
3 0
2 0
3 0
3 9 0
3 9 2 0
2 8 3 0
2 8 0
2 0
2 0
3 9 2 0
3 9 0
2 8 0
2 8 3 0
3 0
2 8 3 0
3 9 0
2 0
3 0
3 9 2 0
2 8 0
2 0
3 0
10 0
10 0
4 0
4 0
4 0
4 0
4 0
4 0
4 0
4 0
4 0
4 0
4 0
4 0
13 0
4 0
4 0
4 0
13 0
4 0
4 0
4 0
4 0
13 0
13 0
4 0
4 0
4 0
4 0
4 0
4 0
13 0
6 15 0
5 14 0
6 0
6 15 5 0
5 0
5 14 6 0
5 0
6 0
-8 2 0
2 8 1 0
2 8 -1 0
2 0
6 0
6 15 0
5 0
5 14 6 0
6 15 5 0
5 14 0
6 15 0
5 14 0
6 15 5 0
5 14 6 0
6 15 0
5 14 0
6 15 5 0
5 14 6 0
2 -8 0
2 8 1 0
2 8 -1 0
2 0
7 1 0
7 -1 0
7 0
10 0
7 10 0
10 0
7 0
7 0
10 7 0
7 10 0
10 0
10 0
10 7 0
7 0
7 0
7 0
10 7 0
7 0
7 10 0
10 0
10 0
10 7 0
10 0
10 0
7 0
7 10 0
7 0
10 0
7 0
7 0
7 0
7 0
7 0
1 0
3 0
12 0
7 0
7 3 0
7 3 9 0
7 3 12 9 0
7 0
3 0
3 0
12 3 0
7 3 12 0
3 12 9 0
7 0
7 12 0
12 7 0
3 9 0
12 0
7 0
12 0
12 0
7 3 12 0
7 0
12 0
7 3 9 0
12 0
7 3 0
7 0
3 9 0
7 0
3 0
12 0
12 3 0
3 0
3 12 9 0
12 7 0
7 3 12 9 0
7 12 0
12 0
7 0
7 0
3 9 0
12 0
7 12 0
7 3 9 0
12 7 0
3 12 9 0
12 0
7 3 0
3 0
7 0
7 3 12 9 0
3 0
12 3 0
7 3 12 0
12 3 0
12 0
7 12 0
7 0
7 3 12 9 0
7 3 9 0
12 7 0
7 0
7 3 12 0
3 9 0
7 3 0
3 0
3 0
12 0
12 0
3 12 9 0
7 0
3 0
7 0
12 0
1 0
7 1 0
7 -1 0
7 0
1 0
16 0
1 0
13 4 -1 0
4 -1 0
4 -1 0
13 -1 0
13 -1 0
13 0
13 0
1 0
4 0
3 0
2 0
4 0
4 0
3 9 0
4 2 0
3 0
4 0
2 4 8 0
2 8 0
2 0
2 0
3 0
2 8 0
2 4 8 0
4 2 0
2 0
4 0
3 9 0
2 0
4 0
4 0
4 0
4 0
3 0
2 4 8 0
2 0
2 0
4 0
4 2 0
2 8 0
3 9 0
4 0
3 0
2 0
2 0
2 4 8 0
4 0
4 0
2 8 0
3 9 0
4 2 0
10 0
10 0
10 0
10 0
10 0
10 0
2 0
3 0
2 8 0
2 8 3 0
3 9 0
3 0
3 9 2 0
2 0
3 0
2 0
2 8 0
3 9 2 0
2 8 3 0
3 9 0
2 8 3 0
3 9 0
2 0
3 9 2 0
3 0
2 8 0
3 9 2 0
2 0
2 8 3 0
2 8 0
3 9 0
3 0
3 9 2 0
2 8 3 0
3 0
2 8 0
3 9 0
2 0
3 0
2 0
5 0
6 0
5 14 0
6 15 5 0
5 14 6 0
6 15 0
6 0
5 0
10 0
10 0
10 0
10 0
10 0
10 0
10 0
10 0
10 0
10 0
4 1 0
4 -1 0
4 0
1 0
3 0
3 0
3 9 0
3 9 0
3 0
3 0
3 9 0
3 9 0
3 0
2 8 0
4 0
16 0
4 0
13 0
16 0
13 0
13 0
16 0
2 0
13 0
16 0
3 9 0
7 0
16 0
13 4 0
2 8 0
16 0
3 0
16 0
3 9 0
16 0
3 9 0
16 0
16 0
16 0
2 0
3 0
16 0
13 0
16 0
16 0
13 0
4 0
4 0
16 0
16 0
13 0
16 0
16 0
2 0
16 0
7 0
3 0
16 0
13 0
2 8 0
16 0
16 0
13 0
3 0
2 0
16 0
2 0
16 0
16 0
2 0
13 0
3 9 0
2 8 0
16 0
13 0
16 0
16 0
7 0
13 0
3 9 0
16 0
13 0
4 0
2 8 0
4 0
3 0
16 0
16 0
3 9 0
16 0
13 0
16 0
16 0
16 0
4 0
13 0
4 0
3 0
16 0
16 0
16 0
13 4 0
16 0
13 0
7 0
16 0
2 8 0
16 0
4 0
7 0
16 0
2 0
3 0
2 0
13 0
16 0
4 0
16 0
2 0
16 0
13 0
16 0
13 0
3 0
13 0
16 0
3 0
16 0
13 0
13 0
4 0
2 0
13 0
3 0
16 0
16 0
16 0
3 0
7 0
13 0
4 0
3 9 0
4 0
3 9 0
13 0
16 0
16 0
16 0
16 0
13 0
16 0
16 0
2 8 0
4 0
16 0
2 8 0
16 0
13 4 0
16 0
7 0
16 0
13 0
3 9 0
16 0
2 8 0
2 0
2 0
3 0
16 0
16 0
16 0
16 0
13 0
16 0
16 0
2 0
16 0
2 0
13 0
16 0
16 0
13 0
3 0
3 0
16 0
13 0
4 0
7 0
16 0
16 0
13 0
4 0
16 0
3 0
16 0
2 0
1 0
2 -16 -8 0
2 8 0
2 0
16 0
16 0
16 0
16 0
2 8 0
2 0
2 0
2 8 0
16 0
16 0
2 8 0
16 0
16 0
2 0
16 0
2 0
1 0
10 0
10 0
10 0
10 0
10 0
10 0
10 0
10 0
10 0
10 0
10 0
10 0
10 0
3 0
12 0
7 0
12 0
7 0
7 3 0
12 0
12 3 0
7 3 12 9 0
7 0
3 0
7 3 9 0
3 9 0
7 12 0
3 12 9 0
3 0
12 7 0
12 0
7 3 12 0
7 0
7 0
7 0
7 3 12 0
7 3 12 9 0
12 0
12 7 0
3 9 0
12 0
3 0
7 0
7 12 0
7 3 0
12 0
7 3 9 0
3 12 9 0
3 0
12 3 0
3 9 0
7 0
7 0
7 3 12 0
7 3 12 9 0
3 0
7 3 0
7 12 0
12 0
12 3 0
3 12 9 0
12 0
7 3 9 0
12 0
12 7 0
3 0
7 0
7 0
3 0
3 9 0
7 0
3 12 9 0
7 3 9 0
12 3 0
12 0
12 7 0
7 3 12 0
7 12 0
3 0
12 0
7 0
7 3 12 9 0
12 0
7 3 0
3 0
12 0
7 0
2 -16 -8 0
16 1 0
2 1 16 0
2 1 16 8 0
2 8 1 0
16 -1 0
-1 2 16 0
-1 2 16 8 0
2 8 -1 0
16 0
2 0
-8 2 0
2 8 1 0
2 8 -1 0
2 0
1 13 0
-1 13 0
13 0
2 8 0
10 0
10 0
10 0
4 0
10 0
10 0
4 0
4 0
10 0
10 0
4 0
10 0
4 0
10 0
4 0
4 0
10 0
10 0
10 0
4 0
10 0
10 0
4 0
10 0
10 0
4 0
5 14 6 0
6 0
5 0
5 14 0
6 15 0
6 15 5 0
5 0
6 0
10 1 0
10 7 1 0
7 1 10 0
7 1 0
10 7 -1 0
10 -1 0
7 -1 0
-1 7 10 0
10 0
7 0
1 4 0
-1 4 0
4 0
1 0
3 0
2 0
3 9 0
2 8 0
3 9 2 0
3 0
2 8 3 0
2 0
2 0
2 8 0
3 9 2 0
3 9 0
2 8 3 0
3 0
2 8 3 0
3 9 0
3 9 2 0
2 0
3 0
2 8 0
2 8 0
2 0
3 9 0
3 0
2 0
3 0
10 0
10 4 0
10 0
4 0
10 4 0
10 0
10 0
4 0
4 0
4 0
4 0
4 0
10 4 0
4 0
10 0
4 0
10 0
10 0
10 0
10 4 0
4 0
4 0
10 0
10 0
4 0
10 4 0
10 0
10 0
4 0
4 0
10 4 0
10 0
4 0
10 0
4 0
4 0
10 0
10 0
3 0
2 0
2 0
2 0
4 0
2 4 8 0
2 8 0
3 0
3 9 0
3 0
4 0
4 0
3 9 0
2 4 0
2 0
2 8 3 0
2 8 0
3 9 2 0
3 9 0
3 0
3 9 0
4 0
4 0
3 9 2 0
2 0
2 4 0
4 0
2 8 0
2 8 3 0
2 0
2 0
3 0
2 4 8 0
2 8 0
3 9 0
2 8 3 0
3 0
2 8 0
2 0
3 9 2 0
2 4 0
3 0
2 0
2 4 8 0
3 9 0
2 8 0
4 0
2 0
4 0
3 0
3 9 0
2 8 0
2 0
4 0
3 0
2 0
10 1 0
10 -1 0
10 0
3 -9 0
3 9 0
3 0
3 0
3 9 0
3 0
3 9 0
3 0
3 9 0
3 0
1 0
4 1 0
4 -1 0
4 0
16 0
2 0
2 0
2 8 0
16 0
16 0
2 0
16 0
16 0
2 8 0
2 0
16 0
2 8 0
16 0
2 0
16 0
2 8 0
16 0
16 0
2 0
1 0
-1 4 0
4 0
1 0
1 10 0
-1 10 0
10 0
1 4 0
-1 4 0
4 0
3 0
2 0
3 9 0
3 0
2 8 0
2 0
3 9 0
2 8 0
3 0
2 0
3 9 0
3 0
2 0
2 8 0
2 8 0
3 0
2 0
3 9 0
10 4 0
10 0
4 0
10 4 0
10 0
4 0
4 1 0
4 -1 0
4 0
5 14 6 0
6 15 5 0
5 14 0
5 0
6 0
6 15 0
5 0
6 0
10 0
10 0
10 0
10 0
10 0
10 0
10 0
10 0
10 0
10 0
5 14 6 0
6 0
5 0
6 15 5 0
5 14 0
6 15 0
6 0
5 0
4 0
4 0
4 0
4 0
1 0
4 0
4 0
4 0
1 0
4 0
4 0
4 0
4 0
4 0
4 0
10 0
1 0
4 0
4 0
4 0
10 0
4 0
4 0
4 0
4 0
7 1 0
7 -1 0
7 0
3 0
2 0
2 8 3 0
3 0
3 9 2 0
2 0
3 9 0
2 8 0
3 0
2 0
3 9 0
2 8 3 0
3 9 2 0
2 8 0
2 0
2 8 0
3 9 2 0
3 0
2 8 3 0
3 9 0
2 8 0
2 0
2 8 3 0
3 9 2 0
3 0
3 9 0
3 0
3 9 0
2 8 0
2 0
3 0
2 0
2 0
3 0
2 8 0
3 9 2 0
3 9 0
2 8 3 0
2 0
3 0
3 9 0
2 0
2 8 3 0
2 8 0
3 9 2 0
3 0
3 9 0
3 9 2 0
3 0
2 8 3 0
2 0
2 8 0
2 8 0
2 0
3 9 2 0
2 8 3 0
3 9 0
3 0
3 9 0
3 0
2 8 0
2 0
2 0
3 0
10 0
3 0
2 0
2 0
3 9 0
2 8 0
3 0
3 9 0
2 0
2 8 0
3 0
3 0
2 0
3 9 0
2 8 0
2 0
3 9 0
2 8 0
3 0
3 0
2 0
13 0
13 0
1 0
3 0
4 0
4 3 0
3 0
3 9 0
4 0
3 0
4 0
4 3 9 0
4 0
4 0
4 3 0
3 9 0
4 0
3 0
3 0
4 3 9 0
4 0
3 0
3 9 0
4 3 9 0
4 3 0
3 0
4 0
4 0
4 0
4 3 9 0
4 0
4 3 0
4 0
4 0
3 0
3 9 0
3 0
1 4 0
-1 4 0
4 0
6 15 0
6 15 5 0
5 0
5 14 6 0
5 14 0
6 0
6 0
5 0
16 1 0
16 -1 0
16 0
1 4 0
-1 4 0
4 0
1 0
7 -1 0
7 0
16 1 0
16 -1 0
16 0
-8 0
2 0
13 0
-8 0
2 0
13 0
2 0
3 0
3 9 0
3 0
2 0
2 8 0
2 8 0
2 0
3 9 0
3 0
2 8 0
3 9 0
2 0
3 0
3 0
2 0
3 9 0
2 8 0
3 0
2 0
1 10 0
-1 10 0
10 0
10 0
10 0
10 0
10 0
10 0
10 0
10 0
10 0
10 0
10 0
10 0
10 0
10 0
10 0
10 0
10 0
10 0
10 0
10 0
10 0
10 0
10 0
10 0
10 0
10 0
10 0
10 0
10 0
10 0
10 0
10 0
10 0
10 0
10 0
10 0
1 0
16 0
16 0
1 0
7 0
7 0
7 0
7 0
7 0
7 0
7 0
7 0
7 0
2 -8 0
2 8 1 0
2 8 -1 0
2 0
7 1 0
10 1 0
10 7 1 0
7 1 10 0
10 7 -1 0
10 -1 0
-1 7 10 0
7 -1 0
10 0
7 0
4 0
4 0
4 0
4 0
4 0
4 0
4 0
4 0
4 0
1 0
13 -1 0
13 -1 0
13 0
13 0
-8 2 0
2 8 1 0
2 8 -1 0
2 0
16 1 0
16 -1 0
16 0
2 -8 0
2 8 1 0
2 8 -1 0
2 0
4 1 0
4 -1 0
4 0
4 0
4 0
4 0
4 0
4 0
4 0
4 0
4 0
4 0
1 0
10 0
10 0
10 0
10 0
10 0
10 0
10 0
10 0
10 0
4 0
4 0
13 0
4 0
13 0
13 4 0
13 0
3 0
2 0
3 9 0
2 8 0
3 9 2 0
2 0
3 0
2 8 3 0
3 9 2 0
3 9 0
3 0
2 8 0
2 8 3 0
2 0
2 0
3 9 2 0
2 8 0
3 9 0
3 0
2 8 3 0
2 8 3 0
3 9 0
3 9 2 0
2 0
2 8 0
3 0
2 0
3 0
2 8 0
3 9 0
2 0
3 0
-14 5 -15 0
-5 -15 6 0
-14 -15 6 0
-6 -14 5 0
15 1 5 6 0
5 14 1 0
1 14 5 6 0
6 15 1 0
6 15 -1 0
-1 15 5 6 0
5 14 -1 0
-1 14 5 6 0
5 0
6 0
1 0
13 -1 0
4 -1 0
4 -1 0
13 4 -1 0
13 -1 0
-1 4 13 0
4 0
13 4 0
4 13 0
13 0
13 0
4 0
10 0
10 0
10 0
10 0
10 0
10 0
10 0
10 0
10 0
10 0
10 0
10 0
10 0
10 0
10 0
10 0
10 0
7 0
7 0
7 0
7 0
7 0
7 0
7 0
7 0
7 0
-8 2 0
2 8 1 0
2 8 -1 0
2 0
1 0
16 -1 0
16 0
16 0
16 0
16 0
16 0
16 0
16 0
16 0
16 0
16 0
16 0
16 0
16 0
16 0
16 0
16 0
16 0
16 0
16 0
16 0
16 0
16 0
16 0
2 0
3 0
2 8 3 0
3 0
3 9 0
2 8 0
3 9 2 0
2 0
3 9 0
3 0
2 8 3 0
2 8 0
2 0
3 9 2 0
3 9 0
2 8 3 0
2 0
2 8 0
3 9 2 0
3 0
2 8 3 0
2 0
3 9 0
3 9 2 0
2 8 0
3 0
3 9 0
2 0
2 8 3 0
3 0
2 8 0
3 9 2 0
2 0
3 0
10 0
10 0
4 0
4 0
4 0
4 0
4 0
4 0
4 0
4 0
4 0
4 0
4 0
4 0
13 0
13 0
13 0
13 0
13 0
13 0
13 0
13 0
13 0
4 0
13 0
13 0
4 0
13 0
4 0
13 0
13 0
4 0
4 0
13 0
4 0
13 0
4 0
13 0
4 0
4 0
13 0
13 0
4 0
10 0
10 0
10 0
10 0
16 0
4 0
2 4 13 0
4 0
4 0
2 4 8 13 0
2 0
4 0
13 2 0
16 0
13 4 0
13 0
13 0
2 8 0
4 2 0
2 0
2 8 0
2 8 13 0
10 0
10 0
10 0
10 0
10 0
10 0
-14 -15 6 0
-5 -15 6 0
-14 5 -15 0
-6 -14 5 0
5 14 1 0
1 14 5 6 0
15 1 5 6 0
6 15 1 0
6 15 -1 0
-1 15 5 6 0
-1 14 5 6 0
5 14 -1 0
5 0
6 0
7 1 0
7 -1 0
7 0
4 0
4 0
4 0
4 0
4 0
4 0
4 0
4 0
4 0
13 0
13 0
13 0
13 0
13 0
13 0
13 0
13 0
13 0
1 0
13 0
13 0
13 0
13 0
1 0
4 0
4 0
1 0
13 1 0
13 -1 0
13 0
10 0
10 0
7 0
7 0
7 0
7 0
7 0
7 0
7 0
7 0
7 0
7 0
1 4 0
-1 4 0
4 0
1 0
-1 2 4 13 0
-1 2 8 13 0
13 4 -1 0
13 2 -1 0
4 -1 0
13 -1 0
-1 2 4 8 0
2 8 -1 0
-1 2 4 8 13 0
4 2 -1 0
13 4 0
2 8 4 0
13 2 4 0
13 2 0
13 0
4 0
4 2 0
2 8 0
2 8 13 0
2 4 8 13 0
6 15 0
6 15 5 0
5 0
6 0
5 14 0
5 14 6 0
5 0
6 0
3 9 0
10 0
3 0
10 0
3 9 0
3 0
10 0
10 0
10 0
10 0
3 9 0
3 0
10 0
10 0
3 0
10 0
3 9 0
10 1 0
10 -1 0
10 0
2 0
3 0
11 0
7 0
12 0
11 0
12 7 0
2 8 0
12 0
7 12 0
11 0
7 3 0
11 0
2 8 11 0
12 0
3 0
7 0
7 3 12 0
3 9 0
3 12 9 0
7 3 9 0
3 0
2 0
7 0
7 3 12 9 0
12 0
7 0
11 2 0
12 3 0
2 0
7 0
3 0
2 8 11 0
7 12 0
2 8 0
7 3 12 0
3 9 0
7 3 0
12 0
12 0
12 0
11 2 0
11 0
12 3 0
3 0
7 0
2 0
11 0
7 3 12 9 0
7 0
3 12 9 0
7 3 9 0
11 0
12 7 0
2 0
2 8 11 0
7 3 0
2 0
3 0
12 0
7 3 12 0
11 0
3 9 0
11 0
2 0
7 12 0
7 3 12 9 0
12 7 0
11 2 0
7 0
12 0
3 12 9 0
12 3 0
3 0
11 0
7 3 9 0
7 0
12 0
2 8 0
7 0
2 8 11 0
3 0
7 3 0
12 3 0
11 2 0
7 3 9 0
7 3 12 9 0
7 0
2 0
12 0
3 12 9 0
12 0
12 7 0
11 0
7 0
2 8 0
2 0
3 9 0
3 0
12 0
7 0
11 0
7 3 12 0
7 12 0
11 0
-8 2 0
2 8 1 0
2 8 -1 0
2 0
-14 -15 6 0
-6 -14 5 0
-14 5 -15 0
-5 -15 6 0
1 14 5 6 0
6 15 1 0
5 14 1 0
15 1 5 6 0
5 14 -1 0
-1 15 5 6 0
-1 14 5 6 0
6 15 -1 0
5 0
6 0
1 0
13 0
13 0
1 0
13 0
13 0
13 0
13 0
13 0
1 0
1 0
-8 0
2 0
13 0
-8 0
2 0
13 0
16 0
16 0
16 0
16 0
13 0
13 0
13 0
13 0
13 0
13 0
10 0
10 0
4 1 0
4 -1 0
4 0
10 1 0
10 -1 0
10 0
16 1 0
16 -1 0
16 0
10 1 0
10 -1 0
10 0
-8 2 0
2 8 1 0
2 8 -1 0
2 0
4 0
4 0
10 0
10 0
10 0
10 0
10 0
10 0
10 0
10 0
10 0
7 1 0
7 -1 0
7 0
10 0
10 0
13 0
4 0
4 0
13 0
13 0
4 0
4 0
4 0
13 0
13 0
4 0
4 0
13 0
13 0
4 0
4 0
13 0
13 0
4 0
13 0
1 0
4 0
4 0
4 0
4 0
1 0
4 0
4 0
4 0
4 0
4 0
4 0
4 0
1 0
4 0
4 0
4 0
4 0
10 0
10 0
10 0
10 0
10 0
10 0
10 0
10 0
10 0
10 0
13 0
7 0
7 0
7 0
7 0
-8 2 0
2 8 1 0
2 8 -1 0
2 0
7 0
3 0
5 0
12 0
3 9 0
5 14 0
7 12 0
7 0
12 7 0
3 0
12 3 0
3 12 9 0
12 0
12 0
7 3 9 0
7 3 12 0
3 0
7 0
5 0
7 3 12 9 0
7 3 0
7 0
12 0
12 0
7 0
7 0
3 0
7 3 9 0
12 7 0
12 3 0
7 12 0
3 12 9 0
5 14 0
12 0
3 0
7 3 12 9 0
7 3 12 0
7 3 0
5 0
7 0
3 9 0
12 0
12 3 0
3 9 0
3 0
7 0
7 3 9 0
7 3 0
7 3 12 0
7 0
12 0
12 0
12 0
3 0
5 0
3 12 9 0
7 0
12 7 0
7 12 0
5 14 0
7 3 12 9 0
7 12 0
7 0
3 12 9 0
5 14 0
12 7 0
7 3 9 0
12 0
3 0
7 0
7 3 0
12 0
5 0
7 3 12 0
7 3 12 9 0
7 0
3 0
12 3 0
3 9 0
12 0
3 0
5 0
7 0
12 0
10 1 0
10 -1 0
10 0
1 0
1 0
16 0
16 0
16 0
-8 2 0
2 8 1 0
2 8 -1 0
2 0
1 0
13 0
4 0
4 0
4 0
13 0
4 0
4 0
4 0
13 0
13 0
4 0
4 0
16 0
16 0
16 0
16 0
16 0
16 0
16 0
16 0
16 0
16 0
16 0
16 0
16 0
16 0
16 0
16 0
16 0
16 0
16 0
16 0
16 0
16 0
16 0
16 0
16 0
16 0
1 0
1 0
7 1 0
7 -1 0
7 0
1 10 0
-1 10 0
10 0
1 13 0
-1 13 0
13 0
3 0
2 0
2 0
2 8 0
3 0
3 9 0
3 9 2 0
2 8 3 0
2 8 0
3 9 2 0
2 8 3 0
2 0
3 0
3 9 0
3 0
2 8 0
2 0
3 9 0
3 9 2 0
2 8 3 0
2 0
3 0
1 10 0
-1 10 0
10 0
5 0
6 0
6 15 0
5 14 0
6 0
5 0
2 0
3 0
2 8 0
2 8 3 0
3 9 0
3 0
2 0
3 9 2 0
2 0
3 9 2 0
2 8 0
2 8 3 0
3 0
3 9 0
3 9 2 0
2 8 0
2 8 3 0
2 0
3 0
3 9 0
2 0
3 0
2 8 0
3 9 2 0
3 9 0
2 8 3 0
3 9 0
3 0
2 0
2 8 0
3 0
2 0
5 14 0
5 0
6 15 0
6 0
5 0
6 0
13 0
13 0
13 0
13 0
7 0
7 0
13 0
13 0
5 0
7 0
6 0
7 0
5 14 0
6 15 0
5 14 6 0
5 0
7 0
6 15 5 0
6 0
6 0
5 14 0
6 15 5 0
5 0
7 0
5 14 6 0
6 15 0
7 0
7 0
6 15 5 0
6 0
6 15 0
5 0
5 14 6 0
7 0
5 14 0
6 15 5 0
7 0
5 14 0
5 14 6 0
5 0
7 0
6 0
6 15 0
5 0
6 0
7 0
1 10 0
-1 10 0
10 0
10 1 0
10 -1 0
10 0
-8 2 0
2 8 1 0
2 8 -1 0
2 0
1 0
7 -1 0
7 0
4 0
7 0
4 0
7 0
7 -1 0
4 -1 0
7 0
4 0
4 0
7 0
7 0
4 0
13 0
13 0
10 0
10 0
10 0
10 0
10 0
10 0
10 0
10 0
10 0
10 0
10 0
10 0
10 0
10 0
10 0
10 0
10 0
10 0
10 0
10 0
10 0
-8 2 0
2 8 1 0
2 8 -1 0
2 0
7 0
10 0
10 7 0
7 10 0
7 0
10 0
7 10 0
7 0
10 0
10 7 0
10 0
7 0
7 10 0
7 0
10 0
10 7 0
10 0
7 0
2 -8 0
2 8 1 0
2 8 -1 0
2 0
2 0
3 0
3 9 2 0
2 8 3 0
2 8 0
3 0
3 9 0
2 0
3 0
2 0
3 9 2 0
2 8 3 0
3 9 0
2 8 0
3 0
2 0
3 9 2 0
3 9 0
2 8 0
2 8 3 0
3 9 0
2 8 0
2 0
3 0
3 9 2 0
2 8 3 0
2 0
3 0
4 1 0
4 -1 0
4 0
4 0
13 0
4 0
4 0
13 0
4 0
10 0
10 0
6 0
5 14 6 0
5 14 0
5 0
6 15 0
6 15 5 0
5 0
6 0
-6 -14 5 0
-14 5 -15 0
-14 -15 6 0
-5 -15 6 0
5 14 1 0
15 1 5 6 0
6 15 1 0
1 14 5 6 0
-1 15 5 6 0
5 14 -1 0
6 15 -1 0
-1 14 5 6 0
5 0
6 0
13 0
13 0
13 0
13 0
5 14 0
5 0
6 15 5 0
6 15 0
6 0
5 14 6 0
5 0
6 0
2 -8 0
2 8 1 0
2 8 -1 0
2 0
5 14 0
5 14 6 0
5 0
6 15 5 0
6 0
6 15 0
5 0
6 0
10 0
10 0
10 0
10 0
10 0
10 0
10 0
10 0
10 0
10 0
10 0
10 0
10 0
10 0
10 0
10 0
10 0
5 0
5 14 0
6 0
6 15 0
5 0
6 0
3 9 0
3 9 0
10 1 0
7 1 0
7 1 10 0
10 7 1 0
10 -1 0
-1 7 10 0
10 7 -1 0
7 -1 0
7 0
10 0
4 0
13 4 0
10 0
4 0
10 0
13 0
10 0
10 0
13 0
4 0
13 4 0
10 0
4 0
10 0
13 0
10 0
10 0
13 0
1 0
10 0
10 0
1 0
13 2 -1 0
-1 2 8 13 0
2 8 -1 0
13 -1 0
13 2 0
2 8 13 0
13 0
2 8 0
16 1 0
16 -1 0
16 0
-8 0
2 0
13 0
-8 0
2 0
13 0
4 1 0
4 -1 0
4 0
-8 2 0
2 8 1 0
2 8 -1 0
2 0
1 0
6 15 0
5 14 6 0
5 14 0
6 15 5 0
6 15 0
5 14 6 0
5 14 0
6 15 5 0
1 0
7 1 0
7 -1 0
7 0
1 0
10 0
10 0
10 0
10 0
10 0
10 0
10 0
10 0
10 0
10 0
1 0
-1 4 0
4 0
1 0
16 -1 0
16 0
13 0
13 0
13 0
13 0
13 0
13 0
13 0
13 0
13 0
10 0
10 0
10 0
1 0
-1 4 13 0
4 -1 0
13 4 -1 0
4 -1 0
13 -1 0
13 -1 0
4 13 0
13 0
13 4 0
4 0
13 0
4 0
7 1 0
7 -1 0
7 0
-6 -14 5 0
-14 -15 6 0
-14 5 -15 0
-5 -15 6 0
15 1 5 6 0
5 14 1 0
1 14 5 6 0
6 15 1 0
-1 14 5 6 0
-1 15 5 6 0
6 15 -1 0
5 14 -1 0
5 0
6 0
7 1 0
7 -1 0
7 0
4 0
4 0
4 0
4 0
4 0
4 0
4 0
4 0
4 0
10 0
10 0
10 0
10 0
10 0
10 0
10 0
10 0
10 0
10 0
10 1 0
10 -1 0
10 0
1 0
13 4 -1 0
-1 4 13 0
13 -1 0
13 -1 0
4 -1 0
4 -1 0
13 4 0
4 13 0
4 0
13 0
4 0
13 0
3 0
2 0
3 9 2 0
3 0
2 8 3 0
2 8 0
3 9 0
2 0
2 8 3 0
3 9 2 0
3 9 0
3 0
2 0
2 8 0
3 9 0
3 9 2 0
2 8 0
2 8 3 0
3 0
2 0
2 0
3 0
3 -9 0
3 9 1 0
3 9 -1 0
3 0
2 0
3 0
11 0
7 0
12 0
7 3 9 0
3 0
3 12 9 0
7 0
11 0
12 0
7 0
7 12 0
7 3 12 9 0
2 0
12 7 0
11 0
2 0
3 9 0
11 0
12 3 0
2 8 11 0
2 8 0
7 3 12 0
7 3 0
12 0
3 0
11 2 0
12 0
7 0
7 0
7 3 12 9 0
7 0
7 3 0
3 0
12 0
7 3 9 0
2 0
11 0
3 12 9 0
12 3 0
3 9 0
12 0
2 8 11 0
2 8 0
7 0
12 0
12 7 0
11 0
2 0
7 3 12 0
7 12 0
11 0
3 0
11 2 0
12 0
7 0
3 0
7 0
12 0
12 7 0
11 0
3 0
12 3 0
12 0
7 3 12 0
11 2 0
2 0
7 3 0
2 8 11 0
2 0
7 0
11 0
3 9 0
3 12 9 0
7 3 12 9 0
11 0
7 12 0
7 3 9 0
2 8 0
3 12 9 0
11 0
11 0
7 0
3 0
7 3 9 0
2 0
7 3 12 9 0
2 8 11 0
3 9 0
7 0
3 0
7 3 12 0
11 0
2 0
7 12 0
12 0
7 3 0
12 0
7 0
12 7 0
12 3 0
12 0
2 8 0
11 2 0
10 0
10 0
-8 0
2 0
13 0
-8 0
2 0
13 0
1 10 0
-1 10 0
10 0
-8 2 0
2 8 1 0
2 8 -1 0
2 0
4 0
4 0
4 0
4 1 0
4 -1 0
4 0
1 10 0
-1 10 0
10 0
1 4 0
-1 4 0
4 0
-8 2 0
2 8 1 0
2 8 -1 0
2 0
10 0
10 0
10 0
10 0
10 0
10 0
10 0
10 0
10 0
6 0
5 0
16 0
6 15 0
5 14 0
5 14 6 0
16 0
6 0
16 0
5 0
6 15 5 0
16 0
16 0
5 0
5 14 6 0
6 0
6 15 5 0
6 15 0
5 14 0
6 15 5 0
5 14 6 0
16 0
5 14 0
5 0
6 0
16 0
6 15 0
6 15 5 0
16 0
6 0
16 0
5 14 0
5 14 6 0
6 15 0
5 0
5 0
6 0
16 0
3 9 0
3 9 0
1 13 0
-1 13 0
13 0
1 0
16 -1 0
16 0
16 0
7 1 0
7 -1 0
7 0
7 12 0
7 3 9 0
3 12 0
7 12 0
7 12 0
4 0
16 0
7 3 12 0
16 0
12 0
5 0
3 9 0
4 0
2 8 5 0
7 0
4 3 9 0
7 0
4 0
3 0
7 12 0
14 5 0
5 0
7 3 12 9 0
2 0
4 0
3 12 9 0
3 9 0
3 0
7 3 12 9 0
3 0
3 12 0
5 0
7 0
4 0
16 0
7 3 12 0
3 9 0
14 5 0
7 3 0
4 0
4 0
2 0
2 0
4 0
16 0
4 3 0
7 0
2 0
3 9 0
4 0
3 0
7 3 0
4 0
4 0
3 9 0
12 0
7 0
3 0
7 0
3 9 0
12 0
2 0
7 3 9 0
2 0
3 0
2 8 0
12 0
2 0
2 0
4 0
2 0
16 0
3 12 9 0
3 0
2 14 5 0
12 0
4 0
4 0
5 0
3 0
2 8 0
5 0
3 0
12 0
2 8 0
4 3 9 0
5 0
2 0
4 3 0
3 0
4 0
2 14 5 0
7 3 12 9 0
3 12 9 0
2 0
7 0
12 0
7 0
3 0
16 0
5 0
3 0
7 12 0
2 8 0
5 0
7 0
4 0
12 0
7 3 9 0
3 0
7 0
3 12 0
4 0
16 0
4 0
2 0
7 0
3 12 0
4 0
7 3 9 0
7 0
4 0
7 12 0
2 0
16 0
3 0
2 8 0
2 0
3 9 0
3 9 0
16 0
4 3 9 0
14 5 0
7 3 12 0
14 5 0
4 3 0
3 0
12 0
4 0
3 9 0
4 0
2 8 5 0
16 0
3 9 0
4 0
3 9 0
2 0
2 0
3 12 9 0
7 12 0
5 0
7 3 0
5 0
7 12 0
4 3 0
3 0
4 3 9 0
2 8 0
3 0
7 3 12 0
4 0
3 9 0
4 0
7 3 0
12 0
5 0
7 3 12 9 0
2 0
4 0
12 0
2 0
4 0
3 0
2 0
5 0
2 0
12 0
4 0
7 0
12 0
2 0
3 0
5 0
4 0
3 0
3 0
7 0
12 0
2 0
5 0
12 0
4 0
7 0
4 0
3 0
5 0
7 0
7 12 0
4 3 0
2 0
5 0
4 0
16 0
3 0
7 3 0
2 0
7 0
12 0
2 0
3 9 0
16 0
4 0
12 0
3 12 0
7 3 12 9 0
3 0
7 12 0
16 0
4 3 0
7 0
7 0
3 12 9 0
12 0
3 9 0
4 0
3 12 0
4 0
2 8 0
12 0
5 0
2 0
5 0
2 0
3 12 9 0
4 3 9 0
12 0
16 0
3 0
2 0
3 0
4 3 9 0
7 3 12 0
7 3 9 0
7 12 0
4 0
3 9 0
2 0
7 12 0
2 0
2 0
2 8 0
3 0
7 0
4 0
7 3 12 9 0
4 0
4 0
2 14 5 0
4 0
7 3 9 0
4 0
4 0
3 0
2 8 0
3 9 0
7 3 12 0
14 5 0
14 5 0
3 9 0
3 0
16 0
5 0
7 3 0
3 9 0
4 0
3 0
2 8 5 0
3 0
3 0
2 0
7 0
12 0
12 0
5 0
3 0
4 0
7 0
2 -8 0
2 8 1 0
2 8 -1 0
2 0
3 9 0
2 8 0
2 4 8 0
4 2 0
4 0
2 4 8 0
3 9 0
2 8 0
4 2 0
4 0
3 9 0
2 8 0
4 0
4 2 0
2 4 8 0
2 8 0
4 0
4 2 0
2 4 8 0
3 9 0
13 0
13 0
13 0
13 0
13 0
13 0
13 0
13 0
13 0
4 0
4 0
4 0
4 0
4 0
4 0
4 0
4 0
4 0
-8 -13 2 0
2 8 1 0
13 2 1 0
13 1 0
2 1 8 13 0
2 8 -1 0
13 2 -1 0
13 -1 0
-1 2 8 13 0
13 0
2 0
16 0
16 0
16 0
6 0
5 14 0
5 14 6 0
6 15 0
6 15 5 0
5 0
5 0
6 0
-8 2 0
2 8 1 0
2 8 -1 0
2 0
1 0
4 -1 0
4 0
10 1 0
10 -1 0
10 0
1 0
11 0
4 0
3 0
2 0
11 3 0
2 4 8 0
4 2 0
4 0
11 0
3 9 11 0
2 0
11 0
3 0
2 0
4 0
4 0
3 9 0
2 8 0
2 0
3 9 0
4 0
3 0
4 0
11 0
4 2 0
2 0
11 3 0
11 0
3 9 11 0
2 8 0
2 4 8 0
4 0
11 0
4 2 0
11 0
2 0
2 0
11 3 0
2 4 8 0
4 0
3 9 0
3 9 11 0
4 0
4 0
2 8 0
3 0
2 0
11 0
3 0
2 4 8 0
3 9 11 0
2 8 0
11 0
4 0
4 0
4 2 0
11 3 0
2 0
4 0
3 9 0
1 0
1 0
1 0
4 1 0
4 -1 0
4 0
10 0
10 0
13 0
13 0
13 0
10 0
13 0
10 0
13 0
10 0
10 0
13 0
13 0
13 0
10 0
10 0
10 0
13 0
-15 -14 6 0
-15 -14 5 0
-15 -5 6 0
-6 -14 5 0
15 1 5 6 0
1 14 5 6 0
1 14 5 0
1 14 13 5 0
15 1 6 0
1 14 5 6 0
1 14 13 5 6 0
15 1 6 0
1 14 5 0
15 1 5 6 0
15 1 13 5 6 0
15 1 13 6 0
-1 15 5 6 0
-1 15 13 5 6 0
-1 15 6 0
-1 14 5 0
-1 14 5 0
-1 15 5 6 0
-1 14 5 6 0
-1 14 5 6 0
-1 15 13 6 0
-1 14 13 5 6 0
-1 14 13 5 0
-1 15 6 0
6 0
5 0
13 6 0
13 5 0
6 0
5 0
16 0
16 0
16 0
16 0
16 0
16 0
16 0
16 0
16 0
16 0
16 1 0
16 -1 0
16 0
5 14 0
5 14 6 0
6 15 0
6 15 5 0
5 14 0
5 14 6 0
6 15 0
6 15 5 0
4 0
4 0
4 0
4 0
4 0
4 0
4 0
4 0
4 0
1 0
4 -1 0
4 0
4 0
4 0
16 1 0
16 -1 0
16 0
4 0
16 0
16 0
16 0
16 0
16 0
4 0
16 0
4 0
16 0
16 0
4 0
16 0
16 0
4 0
16 0
4 1 0
4 -1 0
4 0
2 0
3 0
2 8 3 0
3 9 2 0
2 0
2 8 0
3 9 0
3 0
2 8 3 0
2 0
3 0
2 8 0
3 9 0
3 9 2 0
2 0
2 8 0
3 0
3 9 2 0
2 8 3 0
3 9 0
3 9 2 0
2 8 0
2 8 3 0
3 0
2 0
3 9 0
2 8 0
2 0
2 8 3 0
3 9 2 0
3 9 0
3 0
3 0
2 0
4 0
4 0
13 0
4 0
4 0
13 0
1 0
10 0
10 0
10 0
10 0
10 0
10 0
10 0
10 0
1 0
3 9 0
5 14 0
5 14 0
4 3 9 0
4 0
4 0
3 0
4 3 0
4 0
5 14 0
3 9 0
4 3 9 0
4 3 0
3 0
5 14 0
4 0
5 14 0
4 0
4 0
5 14 0
4 3 0
4 3 9 0
3 9 0
3 0
3 9 0
4 3 9 0
4 3 0
5 14 0
5 14 0
4 0
3 0
4 0
5 14 6 0
5 0
6 15 0
6 15 5 0
5 14 0
6 0
5 0
6 0
2 8 0
2 8 0
3 9 0
3 9 0
2 0
3 0
2 8 0
2 0
3 0
2 8 3 0
3 9 0
3 9 2 0
2 8 0
2 0
3 0
2 8 3 0
3 9 0
3 9 2 0
3 9 0
2 8 3 0
3 0
2 8 0
2 0
3 9 2 0
2 0
3 0
4 1 0
4 -1 0
4 0
6 0
5 0
5 14 0
6 15 5 0
6 15 0
5 14 6 0
6 15 5 0
5 14 0
5 14 6 0
6 15 0
6 0
5 0
5 14 0
6 15 0
6 15 5 0
6 0
5 0
5 14 6 0
6 0
6 15 5 0
5 14 0
5 0
5 14 6 0
6 15 0
4 1 0
4 -1 0
4 0
16 1 0
16 -1 0
16 0
4 1 0
4 -1 0
4 0
1 0
7 0
4 0
7 0
4 0
7 0
4 0
4 0
7 0
7 0
7 0
4 0
4 0
7 0
4 0
4 0
7 0
7 0
7 0
4 0
4 0
4 0
7 0
4 0
7 0
6 15 0
5 0
6 15 5 0
5 14 6 0
5 14 0
6 0
4 0
4 0
4 0
4 0
4 0
4 0
4 0
4 0
4 0
4 0
4 0
4 0
4 0
4 0
4 0
4 0
4 0
4 0
4 0
4 0
4 0
4 0
4 0
10 1 0
10 -1 0
10 0
1 10 0
-1 10 0
10 0
4 0
4 0
1 0
6 15 0
6 15 5 0
6 0
5 14 6 0
5 14 0
5 0
5 0
6 0
1 0
-1 4 0
4 0
4 0
4 0
4 0
4 0
4 0
4 0
4 0
4 0
4 0
13 0
13 0
13 0
13 0
13 0
13 0
13 0
13 0
13 0
3 0
2 0
3 9 0
3 0
3 0
4 0
2 8 0
3 9 2 0
2 0
2 0
2 8 3 0
2 4 8 0
4 0
2 0
2 8 0
3 9 0
4 0
2 4 0
2 0
2 8 0
3 9 0
4 0
2 8 3 0
2 4 8 0
3 9 0
4 0
3 0
2 4 0
2 8 0
4 0
3 0
2 0
2 0
3 9 2 0
3 9 0
3 9 2 0
2 0
2 8 0
3 0
2 8 3 0
2 0
2 8 0
2 0
3 9 0
3 0
2 4 0
3 9 0
3 0
2 4 8 0
4 0
4 0
4 0
2 0
2 8 0
3 0
2 0
7 0
7 10 0
10 7 0
10 0
10 0
7 0
7 0
7 10 0
10 7 0
10 0
10 0
7 0
1 0
1 0
10 1 0
10 -1 0
10 0
6 15 5 0
6 0
6 15 0
5 14 6 0
5 14 0
5 0
6 0
6 15 0
5 0
6 15 5 0
5 14 6 0
5 14 0
6 0
6 15 0
5 0
6 15 5 0
5 14 6 0
5 14 0
13 0
4 0
1 0
2 -8 0
2 8 1 0
2 8 -1 0
2 0
4 0
4 0
4 0
4 0
4 0
4 0
4 0
4 0
4 0
4 0
13 0
4 0
13 0
13 0
4 0
13 0
13 0
4 0
10 0
10 0
10 0
10 0
10 -1 0
10 0
10 0
10 0
10 0
10 0
10 0
10 0
7 0
7 0
7 1 0
7 -1 0
7 0
1 0
4 3 9 0
4 0
3 0
4 3 0
4 0
3 9 0
4 0
4 0
4 3 0
3 0
4 3 9 0
3 9 0
4 3 0
3 9 0
4 0
4 0
4 3 9 0
3 0
7 1 0
7 -1 0
7 0
1 0
1 0
1 0
2 0
3 0
2 8 0
2 0
3 9 2 0
3 0
2 8 3 0
3 9 0
3 9 2 0
2 8 0
2 8 3 0
2 0
3 9 0
3 0
3 9 2 0
3 0
2 8 0
2 0
3 9 0
2 8 3 0
2 0
3 0
4 0
4 0
4 0
4 0
4 0
4 0
4 0
4 0
4 0
16 0
16 0
16 1 0
16 -1 0
16 0
-8 -13 2 0
13 0
13 0
2 0
2 8 0
2 0
2 8 0
13 0
13 0
2 0
2 8 0
13 0
13 0
2 0
13 0
13 0
2 8 0
2 0
2 0
3 13 0
13 2 0
13 0
3 2 0
13 0
13 0
13 0
13 0
1 10 0
-1 10 0
10 0
16 1 0
16 -1 0
16 0
10 1 0
10 -1 0
10 0
16 1 0
16 -1 0
16 0
1 0
10 0
10 0
16 0
16 0
16 0
16 0
16 0
16 0
16 0
16 0
16 0
16 0
16 0
16 0
16 0
16 0
4 0
4 0
4 0
16 1 0
16 -1 0
16 0
4 0
4 0
4 0
4 0
4 0
4 0
4 0
4 0
4 0
4 0
4 0
4 0
4 0
4 0
4 0
4 0
1 4 0
-1 4 0
4 0
3 0
2 0
2 0
2 8 0
3 0
3 9 0
3 9 2 0
2 8 3 0
2 8 3 0
3 0
3 9 0
2 8 0
2 0
3 9 2 0
2 8 3 0
3 9 0
3 0
2 0
3 9 2 0
2 8 0
3 0
3 9 2 0
2 8 0
2 8 3 0
3 9 0
2 0
2 8 0
3 9 0
3 0
2 0
3 0
2 0
1 0
13 -1 0
13 0
10 1 0
10 -1 0
10 0
1 0
13 0
13 0
16 0
16 0
16 0
16 0
16 0
16 0
16 0
16 0
16 0
16 0
6 0
6 15 0
5 0
5 14 6 0
6 15 5 0
5 14 0
6 0
5 0
4 0
4 0
4 0
4 0
4 0
4 0
4 0
4 0
4 0
4 0
4 0
4 0
4 0
4 0
4 0
10 0
10 0
10 0
10 0
-8 2 0
2 8 1 0
2 8 -1 0
2 0
2 -16 -8 0
2 1 16 8 0
2 1 16 0
2 8 1 0
16 1 0
16 -1 0
-1 2 16 0
-1 2 16 8 0
2 8 -1 0
16 0
2 0
1 0
1 0
7 0
11 0
12 0
3 0
2 0
12 7 0
7 0
2 8 0
7 0
7 3 0
2 8 11 0
12 0
11 0
12 0
7 3 12 9 0
12 3 0
7 12 0
12 0
11 0
3 0
3 0
3 12 9 0
11 0
7 3 12 0
2 0
2 0
3 9 0
11 2 0
7 0
7 3 9 0
7 0
7 3 0
7 0
12 7 0
7 3 9 0
11 0
11 2 0
2 0
7 3 12 9 0
7 3 12 0
7 0
11 0
2 8 11 0
3 0
3 12 9 0
2 0
7 12 0
3 0
2 8 0
12 0
12 3 0
12 0
3 9 0
12 0
11 0
11 0
3 9 0
7 3 12 0
7 0
2 8 0
7 12 0
3 12 9 0
7 3 0
7 0
3 0
7 0
11 0
12 0
12 0
12 3 0
7 3 12 9 0
2 0
7 3 9 0
2 8 11 0
2 0
12 7 0
3 0
11 2 0
11 0
12 0
2 8 11 0
11 0
7 0
11 0
12 0
7 12 0
3 0
12 0
12 3 0
7 0
7 3 12 9 0
3 0
12 7 0
11 2 0
2 0
7 3 0
3 9 0
2 0
7 3 12 0
2 8 0
12 0
7 3 9 0
11 0
3 12 9 0
7 0
1 0
3 0
16 0
12 0
7 0
2 0
3 0
7 0
3 9 12 0
2 16 0
7 0
16 0
12 0
12 3 0
2 16 8 0
2 0
16 0
2 0
12 0
7 0
16 0
2 8 0
3 9 0
2 8 0
16 0
2 0
2 0
2 16 8 0
7 0
16 0
12 0
3 9 12 0
3 9 0
7 0
12 0
16 0
12 3 0
7 0
3 0
2 16 0
7 0
2 0
2 16 8 0
12 0
16 0
3 0
7 0
7 0
3 9 0
12 3 0
16 0
16 0
2 16 0
12 0
2 0
3 9 12 0
2 8 0
2 16 0
2 0
2 0
7 0
7 0
2 16 8 0
12 3 0
2 8 0
12 0
7 0
3 9 0
16 0
3 9 12 0
12 0
16 0
3 0
16 0
2 -13 -8 0
2 8 0
2 0
13 0
13 0
2 8 0
13 0
2 0
13 0
2 0
13 0
2 8 0
13 0
2 8 0
13 0
13 0
2 0
13 0
2 0
13 0
13 0
13 0
13 0
13 0
13 0
13 0
13 0
13 0
-8 0
2 0
13 0
-8 0
2 0
13 0
4 1 0
4 -1 0
4 0
1 4 0
-1 4 0
4 0
1 0
10 -1 0
10 0
3 0
2 0
2 4 8 0
2 0
2 8 3 0
3 9 2 0
2 0
4 0
2 0
2 4 0
4 0
2 8 0
4 0
2 8 0
3 0
3 9 0
3 0
3 9 0
3 0
3 9 0
3 9 2 0
4 0
3 0
2 0
2 8 3 0
2 0
2 0
4 0
3 9 0
2 8 0
2 8 0
2 4 0
2 4 8 0
4 0
2 8 0
2 8 3 0
3 9 2 0
3 0
3 9 0
2 0
2 0
2 8 0
3 0
3 9 0
2 0
3 0
2 8 0
2 4 8 0
2 0
4 0
4 0
4 0
2 4 0
3 9 0
3 0
2 0
13 0
13 2 0
13 0
2 8 13 0
13 0
2 0
2 8 0
13 0
-8 0
4 0
13 0
13 0
13 0
2 0
4 0
-8 0
13 0
4 0
2 8 13 0
4 0
4 0
13 0
2 0
2 0
2 8 13 0
2 0
2 0
4 0
-8 0
2 8 13 0
2 0
13 2 0
13 0
-8 0
2 0
13 0
2 8 13 0
13 0
13 0
2 8 0
13 0
2 0
-8 0
13 2 0
13 0
2 8 0
2 8 13 0
-8 0
-8 0
2 8 0
-8 0
16 0
2 0
-8 0
-8 0
13 0
13 0
13 0
2 0
13 0
13 0
13 0
13 0
2 0
13 0
13 0
2 8 13 0
2 0
13 0
13 0
2 0
-8 0
13 0
13 0
2 0
4 0
2 0
13 0
-8 0
13 0
2 8 0
13 0
13 0
-8 0
2 0
13 0
13 0
13 0
13 0
2 0
-8 0
-8 0
13 2 0
2 0
4 0
-8 0
-8 0
13 0
13 0
13 0
4 0
-8 0
13 0
-8 0
13 0
-8 0
13 0
2 0
13 0
2 0
13 0
2 8 0
-8 0
2 0
13 0
2 0
13 0
13 2 0
13 0
2 0
4 0
13 0
13 0
13 0
-8 0
7 0
-8 0
2 0
2 0
2 8 0
13 0
-8 0
4 0
4 0
13 0
-8 0
-8 0
2 0
-8 0
4 0
13 0
-8 0
13 0
2 0
13 2 0
13 2 0
13 0
13 0
13 0
-8 0
13 0
13 0
2 0
2 8 13 0
2 0
13 2 0
13 0
-8 0
13 0
2 0
2 8 0
-8 0
13 0
13 0
4 0
13 0
-8 0
-8 0
2 8 0
13 0
13 0
4 0
4 0
13 0
-8 0
13 0
2 8 13 0
13 0
2 0
13 0
2 0
2 0
2 8 13 0
13 0
13 0
13 0
-8 0
-8 0
13 0
4 0
-8 0
13 0
13 0
13 0
-8 0
-8 0
13 0
4 0
-8 0
13 2 0
13 0
13 0
-8 0
2 8 0
4 0
2 8 13 0
-8 0
-8 0
13 0
-8 0
16 0
13 0
13 0
13 0
7 0
13 0
-8 0
13 2 0
13 0
2 0
13 0
-8 0
13 0
4 0
2 0
2 0
-8 0
13 0
4 0
-8 0
13 0
13 2 0
2 0
2 8 0
13 0
13 0
2 0
2 0
13 0
-8 0
4 0
13 0
2 0
2 0
2 0
-8 0
13 0
4 0
2 8 0
2 0
13 0
-8 0
13 0
-8 0
2 8 0
13 0
13 0
2 0
2 0
2 8 0
2 8 13 0
-8 0
4 0
2 0
13 0
13 0
-8 0
2 8 13 0
13 2 0
13 0
13 0
13 2 0
13 0
13 0
4 0
2 0
2 0
-8 0
-8 0
2 0
13 0
13 0
13 0
2 0
-8 0
2 0
13 0
2 8 13 0
2 0
13 0
13 0
13 0
2 0
-8 0
4 0
13 0
13 2 0
2 0
13 0
2 0
2 0
13 0
13 0
13 0
13 0
2 0
-8 0
-8 0
4 0
13 0
2 0
2 0
2 0
2 0
-8 0
13 0
2 0
4 0
13 0
13 0
-8 0
13 0
2 0
13 0
13 0
2 0
2 0
4 0
13 0
13 0
2 0
13 0
-8 0
13 0
4 0
2 0
-8 0
-8 0
2 0
2 0
2 0
4 0
-8 0
13 0
13 0
2 0
4 0
2 0
13 0
-8 0
-8 0
7 0
-8 0
13 0
13 0
13 0
13 0
-8 0
-8 0
13 0
-8 0
-8 0
2 0
13 0
4 0
13 0
13 0
2 0
4 0
13 0
4 0
13 0
2 0
13 0
13 0
2 0
13 0
13 0
4 0
13 0
-8 0
13 0
2 0
-8 0
13 0
13 0
2 0
-8 0
13 0
13 0
2 0
2 0
2 0
13 0
2 0
2 0
2 0
-8 0
13 0
13 0
2 0
-8 0
16 0
-8 0
13 0
2 0
-8 0
-8 0
13 0
2 0
-8 0
-8 0
13 0
13 0
-8 0
13 0
-8 0
4 0
13 0
-8 0
13 0
13 0
2 0
13 0
2 0
4 0
2 0
-8 0
4 0
13 0
13 0
13 0
13 0
13 0
13 0
13 0
13 0
13 0
2 0
13 0
13 0
2 0
13 0
13 0
2 0
13 0
2 0
-8 0
4 0
-8 0
2 8 0
-8 0
2 8 13 0
13 0
13 0
13 0
2 8 13 0
2 8 13 0
13 0
2 8 0
2 8 13 0
2 0
2 8 0
2 0
13 0
13 2 0
13 0
2 8 13 0
13 0
13 2 0
13 0
2 0
13 0
13 0
2 8 0
2 0
13 0
-8 0
-8 0
13 0
13 0
2 0
13 0
4 0
-8 0
13 0
13 0
13 0
2 0
13 0
4 0
2 0
4 0
13 0
2 0
2 8 0
-8 0
13 2 0
2 0
-8 0
13 0
13 0
13 0
13 0
13 0
-8 0
2 0
4 0
13 0
2 0
13 0
2 0
13 0
4 0
4 0
2 0
13 0
13 0
4 0
13 0
13 0
7 0
13 0
13 0
2 0
13 0
-8 0
2 0
2 0
-8 0
13 0
2 0
2 0
13 0
13 0
-8 0
13 0
-8 0
13 0
-8 0
13 2 0
-8 0
13 0
2 8 0
4 0
-8 0
16 0
-8 0
13 0
-8 0
-8 0
13 0
2 8 0
13 0
4 0
2 0
13 0
13 0
13 0
13 0
13 0
-8 0
2 0
2 8 13 0
13 0
13 0
-8 0
13 0
13 0
13 2 0
13 0
2 0
-8 0
2 0
-8 0
13 0
2 0
13 2 0
13 0
-8 0
2 0
13 0
13 0
-8 0
13 2 0
2 0
4 0
4 0
2 0
-8 0
13 0
2 0
4 0
-8 0
2 8 13 0
2 0
-8 0
-8 0
13 0
13 0
2 0
2 0
13 0
2 0
-8 0
-8 0
4 0
-8 0
13 0
2 0
13 0
2 0
13 0
2 0
13 0
-8 0
4 0
2 0
2 0
-8 0
-8 0
2 0
13 0
13 0
-8 0
13 0
4 0
13 0
2 0
13 0
13 0
13 0
13 0
13 0
13 0
13 0
-8 0
-8 0
13 0
2 0
2 0
-8 0
13 0
13 0
4 0
4 0
13 0
-8 0
2 0
13 0
2 0
4 0
4 0
13 0
4 0
13 0
-8 0
13 0
13 0
2 0
-8 0
13 0
13 0
13 0
2 0
2 0
2 0
2 0
2 0
4 0
2 0
2 0
2 0
-8 0
2 0
13 0
-8 0
-8 0
4 0
2 0
13 0
13 0
13 0
-8 0
13 0
-8 0
-8 0
-8 0
13 0
2 0
-8 0
13 0
13 0
2 0
13 0
13 0
4 0
2 0
13 0
2 0
13 0
-8 0
4 0
13 0
2 0
13 0
13 0
13 0
-8 0
2 0
13 0
-8 0
2 0
2 0
13 0
13 0
4 0
-8 0
13 0
13 0
-8 0
2 0
-8 0
13 0
7 0
13 0
13 0
13 0
13 0
2 0
13 0
13 0
-8 0
2 0
16 0
13 0
-8 0
1 10 0
-1 10 0
10 0
1 0
16 -1 0
16 0
4 1 0
4 -1 0
4 0
2 8 0
2 8 0
1 0
7 -1 0
7 0
5 0
4 0
3 0
4 0
3 9 0
3 0
4 0
4 3 0
5 0
4 3 9 0
4 0
5 14 0
3 0
4 0
4 0
4 3 9 0
3 0
4 0
4 3 0
3 9 0
5 14 0
5 0
3 0
5 14 0
3 9 0
5 0
4 3 9 0
4 3 0
4 0
3 0
4 0
4 0
3 0
4 3 0
3 0
4 3 9 0
3 0
5 0
4 0
4 0
4 0
3 9 0
5 14 0
3 0
5 0
4 0
16 1 0
16 -1 0
16 0
13 1 0
13 -1 0
13 0
10 0
4 0
4 0
10 0
4 0
10 0
10 0
4 0
4 0
10 0
10 0
10 0
10 0
10 0
4 0
10 0
4 0
4 0
10 0
10 0
10 0
4 0
10 0
4 0
6 15 0
5 14 6 0
5 14 0
6 15 5 0
3 0
2 0
3 9 2 0
2 8 0
3 9 0
2 0
2 8 3 0
3 0
3 9 0
2 8 0
3 0
2 8 0
2 8 3 0
3 9 2 0
3 9 2 0
3 9 0
2 8 3 0
2 0
3 9 2 0
2 8 0
3 9 2 0
2 8 3 0
2 8 3 0
2 0
3 9 0
3 0
2 8 0
3 9 0
3 9 2 0
2 0
2 8 0
2 0
2 8 3 0
3 0
3 9 0
3 0
3 9 2 0
2 8 3 0
2 8 0
2 8 3 0
3 0
3 9 0
3 9 2 0
3 9 0
2 8 0
2 0
2 0
3 0
2 0
3 0
1 0
-8 2 0
2 8 1 0
2 8 -1 0
2 0
10 1 0
10 -1 0
10 0
2 -8 0
2 8 1 0
2 8 -1 0
2 0
3 9 0
3 9 0
3 9 0
-14 -15 6 0
-5 -15 6 0
-6 -14 5 0
-14 5 -15 0
6 15 1 0
5 14 1 0
1 14 5 6 0
15 1 5 6 0
-1 15 5 6 0
5 14 -1 0
6 15 -1 0
-1 14 5 6 0
5 0
6 0
1 16 0
-1 16 0
16 0
1 0
3 0
3 9 0
4 0
4 3 9 0
5 14 0
5 14 0
4 0
4 3 0
4 3 0
4 3 9 0
4 0
4 0
3 9 0
5 14 0
5 14 0
3 0
4 3 0
5 14 0
4 0
3 0
3 9 0
4 0
5 14 0
4 3 9 0
3 0
5 14 0
4 0
4 0
4 3 0
5 14 0
3 9 0
4 3 9 0
16 0
16 0
16 0
1 13 0
-1 13 0
13 0
10 7 0
13 0
10 0
7 0
13 0
4 0
4 0
10 0
13 0
10 0
4 0
10 7 0
7 0
7 0
10 0
7 10 0
7 10 0
10 0
4 0
7 0
10 0
13 0
7 0
13 0
7 0
10 0
7 0
7 0
10 0
13 0
10 7 0
4 0
13 0
10 0
10 0
10 0
7 10 0
7 10 0
13 0
4 0
10 0
10 7 0
4 0
4 0
10 0
13 0
10 0
7 0
4 0
7 0
4 0
13 0
10 0
4 0
10 0
4 0
13 0
13 0
13 0
7 10 0
13 0
10 7 0
13 0
4 0
10 0
10 0
7 0
10 0
7 0
10 0
7 10 0
4 0
13 0
10 0
10 0
10 7 0
7 0
4 0
7 0
4 0
10 0
7 0
13 0
10 0
7 0
4 0
4 0
4 0
13 0
10 0
10 0
13 0
13 0
4 0
1 0
1 0
4 0
4 0
4 0
4 0
10 0
10 0
1 0
3 0
2 0
2 0
3 9 2 0
2 8 3 0
3 9 0
2 8 0
3 0
3 9 0
3 9 2 0
2 8 3 0
2 8 0
3 0
2 0
2 0
3 9 2 0
2 8 3 0
3 9 0
2 8 0
3 0
3 9 0
3 0
2 0
2 8 3 0
3 9 2 0
2 8 0
2 8 3 0
2 8 0
3 0
3 9 0
2 0
3 9 2 0
3 0
2 0
6 0
6 15 5 0
6 15 0
5 14 0
5 14 6 0
5 0
6 0
5 0
13 0
13 0
13 0
-8 2 0
2 8 1 0
2 8 -1 0
2 0
10 1 0
10 -1 0
10 0
1 0
3 0
4 3 9 0
4 0
4 3 0
4 0
5 14 0
5 14 0
3 9 0
4 3 9 0
4 0
3 0
3 9 0
4 0
5 14 0
4 3 0
5 14 0
3 9 0
5 14 0
4 0
3 0
4 3 9 0
4 0
5 14 0
4 3 0
3 0
4 0
4 3 9 0
3 9 0
4 0
5 14 0
4 3 0
5 14 0
16 1 0
16 -1 0
16 0
5 0
6 15 5 0
5 14 0
6 15 0
5 14 6 0
6 0
5 0
6 0
13 0
13 0
13 0
13 0
13 0
13 0
13 0
13 0
13 0
13 0
10 1 0
10 -1 0
10 0
2 -8 0
2 8 1 0
2 8 -1 0
2 0
1 4 0
-1 4 0
4 0
4 0
4 0
4 0
4 0
4 0
4 0
4 0
4 0
4 0
4 0
3 0
11 0
2 0
3 0
2 8 4 0
4 0
3 9 0
11 0
11 0
4 2 0
3 9 11 0
11 3 0
2 0
2 8 0
4 0
3 9 0
11 0
4 0
2 0
11 0
2 8 0
3 9 11 0
2 8 4 0
4 0
11 3 0
3 0
4 2 0
4 0
11 0
4 0
4 2 0
11 3 0
2 8 4 0
3 9 11 0
2 0
3 9 0
3 0
11 0
2 8 0
3 0
2 0
3 9 0
11 0
2 8 4 0
4 0
4 2 0
11 3 0
11 0
3 9 11 0
2 8 0
4 0
4 0
3 0
2 0
11 0
5 0
-6 2 -14 -8 0
-8 0
2 -5 -15 -8 0
2 0
2 -14 -15 -8 0
-6 2 -5 -8 0
6 0
-6 2 -14 -8 0
6 0
2 -5 -15 -8 0
-6 2 -5 -8 0
-8 0
5 0
2 -14 -15 -8 0
2 0
5 0
6 0
10 0
10 0
13 0
13 0
13 0
13 0
13 0
13 0
13 0
13 0
13 0
1 0
4 0
1 0
1 0
4 0
4 0
1 0
4 0
1 0
1 0
1 0
4 0
4 0
6 15 0
5 14 6 0
5 0
6 0
6 15 5 0
5 14 0
6 15 5 0
6 0
5 14 6 0
5 0
6 15 0
5 14 0
5 14 0
6 15 0
5 0
5 14 6 0
6 15 5 0
6 0
5 14 6 0
6 0
5 14 0
6 15 5 0
5 0
6 15 0
16 0
3 9 0
12 0
3 9 0
7 3 0
7 12 0
2 0
7 5 0
7 3 0
7 0
7 0
3 12 0
12 0
3 0
12 0
7 3 9 0
7 12 0
7 12 0
7 3 0
3 0
-14 5 0
12 0
3 12 9 0
7 12 0
12 0
7 0
7 0
7 3 12 9 0
14 5 0
2 0
3 9 0
7 12 0
7 3 12 0
3 9 0
3 12 9 0
3 9 0
7 0
7 3 9 0
3 0
3 0
7 0
5 0
3 0
3 0
7 0
12 0
7 3 0
3 0
12 0
3 12 9 0
7 3 12 9 0
7 3 12 9 0
7 0
7 12 0
2 8 0
12 0
7 3 12 0
7 0
2 0
7 3 12 0
7 0
7 3 9 0
12 0
7 12 0
5 0
3 12 0
7 0
3 0
7 12 0
3 0
7 0
7 0
7 12 0
3 12 9 0
2 8 0
7 3 9 0
7 0
3 12 9 0
3 12 0
7 0
12 0
12 0
7 3 12 9 0
7 3 0
3 12 0
7 0
12 0
7 0
12 0
12 0
7 14 5 0
7 3 9 0
7 3 12 0
7 3 12 0
7 0
12 0
7 0
7 12 0
3 0
7 3 12 9 0
3 0
7 0
3 12 0
3 9 0
3 12 9 0
3 0
2 0
14 5 0
7 3 12 9 0
3 0
12 0
3 12 9 0
7 0
12 0
3 12 0
7 0
7 14 5 0
7 0
7 3 12 9 0
7 3 0
7 0
5 0
7 0
12 0
7 3 9 0
7 3 12 0
7 0
-14 5 0
12 0
3 9 0
7 0
3 0
2 8 0
7 3 0
7 3 0
3 12 9 0
7 3 9 0
3 9 0
3 9 0
3 0
3 0
7 3 0
7 0
7 0
7 0
12 0
2 0
3 12 0
7 3 0
3 0
3 0
7 3 12 9 0
3 0
7 12 0
7 0
7 0
3 9 0
7 12 0
3 12 0
7 3 12 0
5 0
12 0
7 12 0
7 0
7 3 9 0
7 0
3 9 0
7 12 0
7 0
7 12 0
7 3 12 9 0
7 12 0
12 0
2 8 0
3 0
7 5 0
12 0
12 0
7 0
12 0
12 0
7 0
12 0
3 12 9 0
3 12 9 0
7 3 12 0
7 3 9 0
7 12 0
12 0
2 0
7 12 0
7 0
7 3 12 0
3 9 0
3 12 0
7 3 12 0
7 3 9 0
7 0
12 0
3 12 0
7 12 0
12 0
3 0
7 0
7 12 0
3 0
7 3 12 9 0
2 0
3 0
3 0
3 0
7 0
3 0
12 0
-14 5 0
7 0
7 0
12 0
3 0
12 0
3 0
12 0
7 0
7 0
12 0
7 0
7 0
7 0
7 0
3 12 0
7 3 0
12 0
7 0
3 0
12 0
12 0
7 12 0
7 3 12 9 0
7 12 0
3 12 9 0
3 0
7 3 12 9 0
2 0
7 0
7 12 0
3 0
3 9 0
7 12 0
7 0
7 3 12 0
3 12 0
7 3 12 0
2 8 0
12 0
7 3 9 0
3 12 0
5 0
7 12 0
3 0
3 9 0
3 9 0
7 5 0
7 0
3 0
3 9 0
3 0
7 3 0
7 0
7 3 12 9 0
12 0
3 12 9 0
7 3 12 0
7 12 0
7 0
7 3 12 0
7 3 9 0
5 0
7 3 12 9 0
7 12 0
7 3 0
3 12 9 0
7 0
12 0
3 12 0
7 14 5 0
7 0
-14 5 0
2 8 0
12 0
3 0
7 0
7 0
12 0
3 12 9 0
7 0
7 3 12 9 0
7 3 12 0
3 12 0
7 0
7 0
3 0
12 0
3 9 0
12 0
7 3 9 0
2 0
3 0
12 0
7 3 9 0
3 12 9 0
7 3 0
7 0
7 12 0
7 3 0
7 3 9 0
7 0
7 0
12 0
3 9 0
12 0
7 12 0
12 0
2 0
7 12 0
3 0
3 0
12 0
7 0
14 5 0
3 0
3 0
3 0
7 0
2 0
12 0
3 0
3 0
7 0
7 0
7 0
3 0
12 0
12 0
7 0
7 0
12 0
-14 5 0
12 0
10 1 0
10 -1 0
10 0
2 -16 -8 0
16 1 0
2 1 16 8 0
2 1 16 0
2 8 1 0
-1 2 16 8 0
-1 2 16 0
16 -1 0
2 8 -1 0
16 0
2 0
10 0
10 0
10 0
7 0
10 7 0
7 0
10 0
7 0
7 10 0
7 0
7 0
7 0
7 0
10 7 0
7 10 0
10 0
10 0
7 0
7 0
7 0
7 0
10 0
7 0
10 0
7 0
7 0
7 10 0
7 0
10 7 0
10 0
7 0
10 0
7 0
10 0
10 0
10 0
3 0
-8 2 0
3 9 0
2 3 -8 9 0
-8 2 0
3 0
-8 2 -1 0
3 -1 0
-8 2 0
3 0
1 0
1 4 0
-1 4 0
4 0
16 0
16 0
16 0
16 0
1 0
10 0
10 0
1 0
4 1 0
4 -1 0
4 0
7 0
7 0
7 0
7 0
7 0
7 0
7 0
7 0
16 1 0
16 -1 0
16 0
10 0
10 0
10 0
10 0
10 0
10 0
10 0
10 0
10 0
10 0
10 0
10 0
10 0
10 0
10 0
10 0
10 0
10 0
10 0
10 0
10 0
10 0
10 0
10 0
10 0
10 0
10 0
10 0
10 0
10 0
10 0
10 0
10 1 0
10 -1 0
10 0
13 4 1 0
4 1 0
13 1 0
13 4 -1 0
4 -1 0
13 -1 0
13 0
4 0
5 14 6 0
6 15 0
5 14 0
14 5 6 0
5 14 0
5 0
5 14 6 0
5 14 6 0
6 0
7 0
7 0
5 14 0
6 15 0
6 15 0
6 15 5 0
6 15 5 0
15 5 6 0
6 15 0
6 15 5 0
5 14 0
5 14 0
6 15 5 0
5 14 6 0
5 14 0
7 0
5 14 6 0
7 0
15 5 6 0
6 15 0
6 0
6 15 0
5 0
6 15 0
5 14 6 0
6 15 5 0
6 15 0
5 14 0
14 5 6 0
5 0
5 14 0
6 15 5 0
5 14 0
6 0
6 15 0
1 0
3 0
4 3 0
5 14 0
3 9 0
4 0
4 3 9 0
5 14 0
4 0
3 9 0
3 0
5 14 0
5 14 0
4 3 0
4 0
4 3 9 0
4 0
5 14 0
3 9 0
4 0
3 0
4 3 0
4 0
5 14 0
4 3 9 0
4 3 0
5 14 0
4 0
3 0
5 14 0
4 0
4 3 9 0
3 9 0
4 1 0
4 -1 0
4 0
-14 5 -15 0
-14 -15 6 0
-6 -14 5 0
-5 -15 6 0
6 15 1 0
15 1 5 6 0
5 14 1 0
1 14 5 6 0
5 14 -1 0
-1 15 5 6 0
-1 14 5 6 0
6 15 -1 0
5 0
6 0
16 0
10 0
16 0
10 0
16 0
10 0
10 0
10 0
10 0
10 0
10 0
1 10 0
-1 10 0
10 0
1 0
4 -1 0
4 0
1 10 0
-1 10 0
10 0
7 1 0
7 -1 0
7 0
-8 2 0
2 8 1 0
2 8 -1 0
2 0
5 14 6 0
5 14 0
6 15 0
6 0
5 0
6 15 5 0
5 0
6 0
13 1 0
13 -1 0
13 0
6 15 0
5 14 0
5 0
6 0
-6 -14 5 0
-14 -15 6 0
-14 5 -15 0
-5 -15 6 0
6 15 1 0
5 14 1 0
15 1 5 6 0
1 14 5 6 0
6 15 -1 0
5 14 -1 0
-1 15 5 6 0
-1 14 5 6 0
5 0
6 0
10 0
10 0
10 0
10 0
13 0
13 0
3 9 1 0
3 -1 0
3 0
-8 2 0
2 8 1 0
2 8 -1 0
2 0
1 4 0
-1 4 0
4 0
13 0
13 0
1 0
16 -1 0
16 0
12 7 0
3 12 9 0
2 0
2 8 11 0
12 0
12 0
3 0
11 0
3 9 0
11 0
2 8 0
12 0
7 12 0
7 0
7 3 12 9 0
7 3 9 0
7 0
2 0
7 0
7 3 12 0
12 3 0
11 2 0
11 0
3 0
7 3 0
12 7 0
3 12 9 0
2 0
2 8 11 0
12 0
12 0
3 0
11 0
3 9 0
11 0
2 8 0
12 0
7 12 0
7 0
7 3 12 9 0
7 3 9 0
7 0
2 0
7 0
7 3 12 0
12 3 0
11 2 0
11 0
3 0
7 3 0
5 14 6 0
6 15 5 0
5 14 0
5 0
6 0
6 15 0
5 0
6 0
-8 2 0
2 8 1 0
2 8 -1 0
2 0
6 0
16 0
16 0
16 0
5 14 0
6 15 5 0
5 0
6 15 0
5 14 6 0
6 0
16 0
16 0
16 0
5 14 0
6 15 5 0
5 0
6 15 0
5 14 6 0
3 0
12 0
7 0
7 0
7 3 12 9 0
7 0
12 0
3 9 0
12 0
7 3 9 0
7 12 0
12 0
3 0
3 0
12 7 0
7 3 12 0
7 3 0
3 12 9 0
7 0
12 3 0
12 0
12 0
7 3 12 0
3 12 9 0
12 3 0
12 7 0
7 0
3 9 0
12 0
7 12 0
3 0
7 0
3 0
7 3 0
7 3 9 0
7 0
7 3 12 9 0
7 0
3 9 0
12 0
7 12 0
12 7 0
12 0
7 0
7 3 9 0
12 0
12 3 0
7 3 12 9 0
7 3 12 0
3 0
7 3 0
7 0
3 0
3 12 9 0
7 0
3 0
3 9 0
12 7 0
12 0
7 3 12 9 0
3 0
7 3 0
12 0
7 3 12 0
7 0
12 0
3 12 9 0
12 3 0
7 12 0
7 3 9 0
7 0
3 0
7 0
12 0
4 0
4 0
2 8 0
2 8 0
2 8 0
-8 2 0
2 8 1 0
2 8 -1 0
2 0
1 0
4 0
4 0
4 0
4 0
4 0
4 0
4 0
4 0
7 0
7 0
16 1 0
16 -1 0
16 0
4 1 0
4 -1 0
4 0
1 0
10 0
10 0
10 0
10 0
10 0
7 10 0
7 0
10 0
7 0
7 0
10 7 0
10 0
7 0
10 0
10 7 0
7 0
7 0
7 10 0
10 7 0
10 0
7 0
7 0
7 0
7 10 0
7 10 0
7 0
7 0
10 0
7 0
10 0
10 7 0
10 0
7 0
10 0
7 0
10 0
7 0
7 0
7 0
7 0
7 0
7 10 0
10 7 0
7 0
7 0
7 10 0
10 0
10 7 0
7 0
10 0
10 0
10 0
7 0
10 0
10 0
7 0
7 0
1 0
13 0
13 0
-6 -14 5 0
-14 -15 6 0
-14 5 -15 0
-5 -15 6 0
6 15 1 0
15 1 5 6 0
1 14 5 6 0
5 14 1 0
5 14 -1 0
-1 15 5 6 0
6 15 -1 0
-1 14 5 6 0
5 0
6 0
7 0
7 0
10 0
7 0
7 0
10 0
10 0
7 0
7 0
10 0
10 0
7 0
10 0
7 0
7 0
10 0
7 0
7 0
10 0
10 0
10 0
7 0
4 0
4 0
4 0
4 0
4 0
4 0
4 0
4 0
4 0
12 0
7 0
3 0
12 0
3 12 9 0
3 0
7 3 12 0
7 12 0
12 7 0
7 3 12 9 0
12 0
7 0
3 0
7 3 0
3 9 0
7 0
7 0
7 3 9 0
12 0
12 3 0
7 0
7 3 12 0
3 9 0
12 0
3 12 9 0
12 3 0
7 3 9 0
12 0
3 0
7 3 0
7 0
7 3 12 9 0
7 12 0
12 7 0
12 0
3 0
7 0
7 12 0
7 3 0
7 3 9 0
12 0
3 9 0
3 0
7 3 12 0
7 0
7 3 12 9 0
7 0
12 0
3 0
3 12 9 0
12 3 0
12 7 0
7 0
12 0
3 0
7 3 12 0
7 3 0
3 0
12 7 0
7 3 9 0
12 0
12 3 0
7 0
12 0
7 0
7 12 0
7 3 12 9 0
3 9 0
12 0
7 0
3 12 9 0
3 0
12 0
7 0
3 0
2 0
2 0
3 0
3 9 0
2 8 0
3 9 2 0
2 8 3 0
3 9 0
2 8 3 0
3 0
3 9 2 0
2 0
2 8 0
3 9 2 0
2 0
2 8 0
3 9 0
3 0
2 8 3 0
3 9 0
2 8 0
3 9 2 0
2 8 3 0
3 0
2 0
3 0
2 0
3 9 0
2 8 0
3 9 2 0
2 8 3 0
3 0
2 0
-8 2 0
2 8 1 0
2 8 -1 0
2 0
3 0
2 0
2 8 3 0
3 9 2 0
2 8 0
3 9 0
3 0
2 0
3 9 0
3 9 2 0
2 8 0
3 0
2 0
2 8 3 0
2 8 3 0
2 8 0
2 0
3 0
3 9 0
3 9 2 0
2 0
3 0
1 0
-1 10 0
10 0
10 0
7 1 0
7 -1 0
7 0
1 0
4 0
4 0
4 0
4 0
4 0
4 0
4 0
4 0
4 0
10 1 0
10 -1 0
10 0
1 0
4 -1 0
4 0
4 0
4 0
4 0
4 0
7 0
7 0
7 0
7 0
16 1 0
16 -1 0
16 0
-8 2 0
2 8 1 0
2 8 -1 0
2 0
13 0
10 1 0
10 -1 0
10 0
13 0
5 14 0
6 0
6 15 5 0
5 14 6 0
5 0
6 15 0
5 0
6 0
3 0
2 0
3 9 0
2 0
2 8 3 0
2 8 0
3 9 2 0
3 0
2 0
3 9 0
2 8 3 0
2 8 0
3 9 2 0
3 0
2 8 0
3 0
2 0
3 9 2 0
2 8 3 0
3 9 0
2 8 3 0
2 8 0
3 9 0
3 0
2 0
3 9 2 0
3 0
2 0
3 9 0
2 8 0
2 0
3 0
13 0
13 0
13 0
13 0
13 0
13 0
13 0
13 0
13 0
3 9 0
16 3 0
16 0
3 9 16 0
3 9 0
16 3 0
16 0
3 9 16 0
3 0
2 0
11 0
12 0
7 0
3 12 9 0
7 0
3 0
2 8 0
7 0
3 0
12 0
7 3 0
7 3 9 0
3 9 0
12 0
12 0
7 3 12 9 0
11 0
11 2 0
12 3 0
2 0
2 0
11 0
11 0
7 0
7 12 0
7 3 12 0
2 8 11 0
12 7 0
12 7 0
7 3 12 0
11 0
7 12 0
11 0
11 2 0
7 3 0
2 0
2 8 0
7 3 12 9 0
7 0
12 0
12 0
3 0
3 0
2 8 11 0
3 9 0
12 0
12 3 0
7 3 9 0
7 0
7 0
2 0
11 0
3 12 9 0
11 0
7 3 0
3 0
3 9 0
2 8 11 0
2 0
12 0
12 7 0
3 12 9 0
7 0
12 0
7 3 9 0
12 3 0
12 0
7 3 12 9 0
7 3 12 0
2 0
11 0
2 8 0
11 2 0
7 0
3 0
11 0
7 0
7 12 0
7 3 0
7 0
2 0
12 3 0
11 0
2 0
7 0
2 8 0
7 3 9 0
7 0
12 0
2 8 11 0
3 0
11 2 0
12 7 0
3 0
7 3 12 0
7 3 12 9 0
7 12 0
12 0
12 0
3 12 9 0
3 9 0
11 0
11 0
2 0
-8 0
13 0
2 0
-8 0
13 0
2 8 0
13 0
2 8 0
13 0
2 8 13 0
13 0
2 8 13 0
2 8 0
2 8 0
13 2 0
13 0
2 8 13 0
13 0
2 8 13 0
2 8 0
2 8 0
13 2 0
1 4 0
-1 4 0
4 0
4 0
4 0
4 0
4 0
4 0
4 0
4 0
4 0
4 0
3 0
2 0
3 9 0
2 0
3 0
2 8 3 0
2 8 0
3 9 2 0
2 8 0
3 0
2 0
3 9 2 0
2 8 3 0
3 9 0
3 9 0
2 0
2 8 3 0
2 8 0
3 0
3 9 2 0
3 9 2 0
2 8 3 0
3 0
2 8 0
2 0
3 9 0
3 0
2 0
2 8 0
3 9 0
2 0
3 0
4 0
7 0
7 10 0
10 7 0
7 0
10 0
10 0
7 10 0
10 0
10 7 0
7 0
10 0
7 0
10 0
7 0
10 0
10 7 0
10 7 0
7 0
7 0
10 0
7 10 0
7 0
7 10 0
10 0
7 10 0
7 0
10 0
7 0
10 0
7 0
7 10 0
10 0
10 0
10 7 0
7 0
10 7 0
7 0
7 0
7 10 0
10 0
10 7 0
10 0
10 0
7 0
7 10 0
7 0
7 10 0
10 0
10 0
10 7 0
7 0
10 7 0
7 0
7 0
10 0
10 0
7 0
7 0
10 0
10 0
16 0
16 0
16 0
16 0
16 0
16 0
16 0
16 0
16 0
10 0
10 0
3 9 0
3 9 0
10 0
10 0
10 0
10 0
1 0
4 0
4 0
4 0
4 0
4 0
4 0
4 0
4 0
4 0
3 0
2 0
2 0
2 8 0
2 0
3 0
3 0
3 9 0
2 0
3 0
2 8 0
2 0
2 0
3 9 0
3 0
2 0
2 8 0
3 0
3 0
2 0
2 0
3 9 0
2 0
2 0
3 9 0
2 8 0
2 0
3 0
2 0
3 0
4 0
4 0
4 0
4 0
4 0
4 0
4 0
4 0
4 0
1 0
7 -1 0
-1 7 10 0
10 7 -1 0
10 -1 0
7 0
10 7 0
10 0
7 10 0
10 0
10 0
10 0
10 0
13 0
13 0
13 0
13 0
13 0
13 0
13 0
13 0
13 0
13 0
13 0
13 0
13 0
3 0
2 0
2 8 3 0
3 9 2 0
3 0
3 9 0
2 8 0
2 0
2 8 0
2 0
2 8 3 0
3 0
3 9 2 0
3 9 0
3 9 0
2 8 0
2 8 3 0
2 0
3 0
3 9 2 0
2 8 3 0
3 0
2 0
3 9 2 0
2 8 0
3 9 0
2 0
3 0
10 0
10 0
1 0
7 -1 0
7 0
16 0
16 0
16 0
16 0
16 0
16 0
16 0
16 0
16 0
16 0
1 0
2 -8 0
2 8 1 0
2 8 -1 0
2 0
13 0
13 0
1 0
3 0
2 0
3 9 0
2 8 3 0
2 8 0
3 9 2 0
3 0
2 0
3 9 0
2 8 3 0
3 0
2 8 0
2 0
3 9 2 0
3 9 0
2 0
3 9 2 0
3 0
2 8 3 0
2 8 0
2 0
3 9 0
2 8 0
3 0
3 9 2 0
2 8 3 0
3 0
2 8 0
3 9 0
2 0
2 0
3 0
2 0
3 0
2 8 0
3 9 0
2 0
2 0
2 0
3 0
3 0
3 0
3 0
3 9 0
2 0
2 0
2 8 0
2 0
2 8 0
2 0
3 9 0
3 0
2 0
3 0
2 0
3 0
2 8 0
2 0
3 9 0
2 0
2 0
3 0
3 0
12 0
7 0
7 0
3 12 9 0
12 0
7 3 9 0
12 0
3 0
12 7 0
3 9 0
7 0
7 3 0
7 12 0
7 0
12 0
7 3 12 9 0
12 3 0
3 0
7 3 12 0
7 3 0
3 9 0
7 3 9 0
7 12 0
12 0
12 0
3 12 9 0
7 0
7 0
12 0
7 3 12 0
12 3 0
12 7 0
3 0
7 3 12 9 0
7 0
3 0
12 0
12 0
7 3 12 0
3 0
3 0
7 0
3 9 0
7 3 0
7 0
7 3 12 9 0
7 3 9 0
7 0
7 12 0
12 3 0
12 0
3 12 9 0
12 7 0
7 0
12 7 0
3 12 9 0
12 0
7 0
12 0
7 3 12 9 0
12 0
3 9 0
3 0
7 0
3 0
12 3 0
7 3 9 0
7 3 0
7 3 12 0
7 12 0
12 0
7 0
3 0
4 0
4 0
4 0
4 0
4 0
4 0
4 0
4 0
4 0
1 0
2 8 -1 0
2 8 0
1 0
1 0
7 1 0
7 -1 0
7 0
5 0
6 15 0
5 14 6 0
5 14 0
6 0
6 15 5 0
5 0
6 15 0
5 14 6 0
5 14 0
6 0
6 15 5 0
1 0
13 -1 0
13 -1 0
-1 4 13 0
13 4 -1 0
4 -1 0
4 -1 0
13 0
4 0
4 13 0
13 4 0
4 0
13 0
1 10 0
-1 10 0
10 0
1 10 0
-1 10 0
10 0
1 10 0
-1 10 0
10 0
5 14 0
6 15 5 0
5 0
6 0
5 14 6 0
6 15 0
5 0
6 0
1 10 0
-1 10 0
10 0
1 0
4 -1 0
13 -1 0
13 4 -1 0
13 -1 0
4 -1 0
-1 4 13 0
13 0
4 0
13 4 0
4 0
4 13 0
13 0
1 0
10 0
10 0
3 0
2 0
3 9 2 0
2 8 0
2 8 3 0
2 0
3 0
3 9 0
2 8 3 0
2 8 0
3 9 0
3 0
2 0
3 9 2 0
3 0
2 8 0
3 9 0
2 0
3 9 2 0
2 8 3 0
2 0
2 8 3 0
3 9 0
2 8 0
3 0
3 9 2 0
2 8 0
3 9 2 0
3 9 0
2 0
2 8 3 0
3 0
3 0
2 0
1 0
1 0
1 4 0
1 10 0
-1 4 0
-1 10 0
4 0
10 0
7 0
7 0
10 0
10 0
4 0
10 0
4 0
4 0
10 0
10 0
4 0
10 0
7 0
7 0
10 0
4 0
7 0
10 0
10 0
7 0
4 0
10 0
4 0
7 0
10 0
10 0
7 0
10 0
10 0
4 0
10 0
2 -8 0
2 8 1 0
2 8 -1 0
2 0
2 0
3 0
3 0
2 0
2 8 0
3 0
3 9 0
2 0
2 0
2 0
2 0
3 0
3 9 0
2 0
3 0
2 8 0
3 9 0
2 0
2 0
2 0
3 0
3 0
2 8 0
3 9 0
3 0
2 0
2 8 0
2 0
4 0
4 0
4 0
4 0
4 0
4 0
4 0
4 0
4 0
4 0
10 0
10 0
5 14 6 0
5 0
5 14 0
6 15 0
6 0
6 15 5 0
5 0
6 0
10 0
10 0
10 0
10 0
10 0
10 0
10 0
10 0
10 0
10 0
7 1 0
7 -1 0
7 0
1 10 0
-1 10 0
10 0
2 0
3 0
3 9 2 0
2 8 3 0
2 0
3 9 0
2 8 0
3 0
3 9 2 0
2 0
2 8 3 0
3 9 0
2 8 0
3 0
2 8 3 0
3 9 0
2 8 0
2 0
3 0
3 9 2 0
2 0
3 0
2 8 3 0
3 9 2 0
2 8 0
3 9 0
3 9 0
2 0
3 0
2 8 0
2 0
3 0
13 0
13 0
3 9 0
3 0
3 0
3 9 0
3 0
3 9 0
3 0
3 9 0
1 0
13 0
4 0
4 0
4 0
4 0
13 0
13 0
4 0
4 0
4 0
13 0
4 0
4 0
4 0
4 0
4 0
4 0
4 0
4 0
4 0
4 0
2 0
3 0
3 9 2 0
2 8 3 0
3 0
2 8 0
3 9 0
2 0
2 8 3 0
3 9 0
3 0
3 9 2 0
2 8 0
2 0
3 9 2 0
2 8 0
3 0
2 0
3 9 0
2 8 3 0
3 9 0
2 8 3 0
2 0
3 0
2 8 0
3 9 2 0
2 8 3 0
2 8 0
2 0
3 9 0
3 9 2 0
3 0
2 0
3 0
10 0
10 0
13 0
13 0
4 0
4 0
4 0
4 0
10 0
10 0
10 0
10 0
10 0
10 0
10 0
10 0
3 0
3 9 0
3 0
4 0
4 0
4 0
4 0
4 0
4 0
4 0
4 0
4 0
4 0
7 1 0
7 -1 0
7 0
6 15 5 0
6 15 0
5 14 6 0
5 14 0
5 0
6 0
2 -13 -8 0
2 0
2 8 0
13 0
13 0
2 8 0
2 0
13 0
13 0
13 0
2 0
2 8 0
13 0
2 8 0
13 0
2 0
13 0
13 0
2 0
13 0
13 0
1 10 0
-1 10 0
10 0
7 0
7 0
4 0
4 7 0
4 0
7 0
4 7 0
4 0
7 0
4 0
7 0
7 0
4 7 0
7 0
4 0
4 7 0
7 0
4 0
4 0
7 0
7 0
4 0
4 0
7 0
4 0
7 0
7 0
4 0
7 0
4 0
7 0
4 7 0
7 0
7 0
7 0
4 0
4 0
4 7 0
7 0
4 0
7 0
7 0
4 0
4 0
7 0
4 0
4 0
10 0
4 0
4 0
10 0
10 1 0
10 -1 0
10 0
10 0
10 0
10 0
1 0
4 0
4 0
4 0
4 0
4 0
4 0
4 0
4 0
1 0
10 1 0
10 -1 0
10 0
3 0
2 0
3 0
2 8 0
3 0
2 0
2 0
3 9 0
3 0
2 8 0
2 0
3 0
3 9 0
2 0
2 0
2 8 0
3 9 0
3 0
2 0
3 0
3 0
2 0
2 8 0
3 9 0
3 0
2 0
7 0
7 0
7 0
7 0
7 0
7 0
7 0
7 0
7 0
16 1 0
16 -1 0
16 0
-8 2 0
2 8 1 0
2 8 -1 0
2 0
4 0
4 0
4 0
4 0
4 0
4 0
4 0
4 0
4 0
4 0
4 0
4 0
7 0
3 0
12 0
3 9 0
3 12 9 0
12 3 0
7 12 0
7 0
12 0
7 0
12 0
7 0
3 0
7 3 12 0
7 3 9 0
3 0
12 7 0
7 3 0
12 0
7 3 12 9 0
3 0
7 0
12 7 0
12 3 0
3 12 9 0
7 3 0
7 3 9 0
7 0
7 0
12 0
12 0
3 9 0
7 3 12 0
7 3 12 9 0
3 0
12 0
7 12 0
12 3 0
7 0
12 0
7 12 0
7 0
3 12 9 0
12 0
7 3 9 0
7 3 12 9 0
3 0
3 9 0
12 7 0
3 0
7 3 12 0
7 3 0
7 0
12 0
12 0
3 0
12 7 0
7 0
12 0
7 3 0
12 3 0
7 3 12 9 0
3 0
7 12 0
7 0
7 3 9 0
7 3 12 0
3 12 9 0
7 0
12 0
3 9 0
7 0
3 0
12 0
16 1 0
16 -1 0
16 0
6 15 5 0
5 0
6 0
5 14 0
5 14 6 0
6 15 0
6 0
5 0
10 0
10 0
16 1 0
16 -1 0
16 0
7 1 0
7 -1 0
7 0
13 0
13 0
16 0
16 0
16 0
13 0
1 0
16 0
16 0
1 0
2 0
2 8 -1 0
2 8 0
3 0
2 0
3 0
2 0
2 0
2 8 0
2 0
3 0
3 9 0
2 0
2 0
3 0
3 9 0
3 0
2 8 0
2 0
2 0
2 0
3 0
2 0
3 9 0
2 8 0
3 0
2 0
3 9 0
3 0
2 0
2 8 0
2 0
3 0
1 10 0
-1 10 0
10 0
10 0
10 0
10 0
10 0
7 1 0
7 -1 0
7 0
6 15 0
6 15 5 0
5 14 0
5 14 6 0
6 0
5 0
5 14 6 0
5 14 0
6 15 0
6 0
5 0
6 15 5 0
5 14 6 0
6 15 0
5 14 0
6 0
6 15 5 0
5 0
6 15 0
6 0
5 14 6 0
5 14 0
6 15 5 0
5 0
-8 2 0
2 8 1 0
2 8 -1 0
2 0
3 0
2 0
4 0
11 0
11 3 0
11 0
4 0
2 8 4 0
3 9 11 0
2 0
4 0
4 2 0
2 8 0
11 0
3 0
3 9 0
2 0
11 3 0
4 0
11 0
3 9 0
4 0
3 9 11 0
2 8 4 0
3 0
2 8 0
11 0
4 2 0
11 0
11 0
3 0
3 9 11 0
11 3 0
2 0
4 2 0
4 0
4 0
3 9 0
2 8 0
2 8 4 0
4 0
4 0
11 0
11 0
4 2 0
3 0
2 8 4 0
3 9 0
3 9 11 0
11 3 0
2 0
2 8 0
11 0
2 0
4 0
3 0
1 0
16 -1 0
16 0
1 4 0
-1 4 0
4 0
1 0
13 2 -1 0
2 8 -1 0
-1 2 8 13 0
13 -1 0
2 8 0
13 2 0
2 8 13 0
13 0
10 1 0
10 -1 0
10 0
1 4 0
-1 4 0
4 0
7 1 0
7 -1 0
7 0
5 14 0
6 15 5 0
6 15 0
6 0
5 14 6 0
5 0
6 0
5 0
16 0
2 0
2 8 0
16 0
16 0
2 0
2 0
16 0
16 0
2 8 0
2 8 0
16 0
16 0
2 0
16 0
2 8 0
16 0
2 0
16 0
2 0
13 0
13 0
1 0
-1 4 13 0
13 -1 0
4 -1 0
13 -1 0
4 -1 0
13 4 -1 0
13 0
4 13 0
13 4 0
4 0
13 0
4 0
1 0
7 -1 0
7 0
1 0
-8 0
2 0
13 0
-8 0
2 0
13 0
3 -9 0
3 9 1 0
3 9 -1 0
3 0
16 0
16 0
16 0
16 0
16 0
16 0
16 0
16 0
16 0
16 0
16 0
16 0
16 0
16 0
-14 5 -15 0
-6 -14 5 0
-14 -15 6 0
-5 -15 6 0
15 1 5 6 0
6 15 1 0
5 14 1 0
1 14 5 6 0
5 14 -1 0
-1 15 5 6 0
6 15 -1 0
-1 14 5 6 0
5 0
6 0
10 0
10 0
10 0
3 0
2 0
3 9 2 0
2 8 0
3 9 0
2 8 3 0
3 0
2 0
3 9 0
2 8 0
2 0
2 8 3 0
3 0
3 9 2 0
3 9 2 0
2 0
2 8 0
3 9 0
3 0
2 8 3 0
2 0
3 0
2 8 3 0
3 9 0
2 8 0
3 9 2 0
2 0
3 0
2 8 0
3 9 0
2 0
3 0
1 10 0
-1 10 0
10 0
-8 2 0
2 8 1 0
2 8 -1 0
2 0
4 1 0
4 -1 0
4 0
10 0
10 0
16 0
16 0
16 0
1 0
4 -1 0
4 0
1 0
16 0
16 0
16 0
-8 2 0
2 8 1 0
2 8 -1 0
2 0
2 0
3 0
2 0
3 9 0
2 8 3 0
2 8 0
3 9 2 0
3 0
3 9 2 0
2 8 3 0
3 0
3 9 0
2 0
2 8 0
3 0
3 9 0
2 8 3 0
2 0
3 9 2 0
2 8 0
2 0
2 8 0
3 9 0
3 0
3 0
2 0
1 10 0
-1 10 0
10 0
-8 -13 2 0
2 8 1 0
13 2 1 0
13 1 0
2 1 8 13 0
2 8 -1 0
13 2 -1 0
13 -1 0
-1 2 8 13 0
13 0
2 0
-8 2 0
2 8 0
2 8 0
13 2 0
13 0
2 8 13 0
2 0
13 0
2 8 13 0
2 8 0
2 0
13 2 0
2 8 0
13 0
2 8 0
2 0
2 0
2 8 0
13 2 0
13 0
2 8 13 0
13 2 0
13 2 0
2 0
2 0
13 0
13 0
13 0
13 0
13 0
13 0
10 0
10 0
3 9 0
3 9 0
4 0
3 0
2 0
3 0
2 0
4 0
4 2 0
2 8 0
3 9 0
4 0
2 8 4 0
2 0
4 0
4 0
2 8 4 0
4 2 0
2 8 0
3 9 0
3 0
2 8 0
4 0
2 0
4 0
3 0
2 8 4 0
3 9 0
4 2 0
4 0
2 0
3 9 0
4 0
2 8 4 0
2 8 0
4 2 0
3 0
13 0
10 0
10 0
10 0
10 0
10 0
10 0
10 0
10 0
10 0
-9 3 0
3 9 1 0
3 9 -1 0
3 0
4 0
4 0
4 0
10 0
4 0
10 0
2 -16 -8 0
2 1 16 8 0
16 1 0
2 8 1 0
2 1 16 0
-1 2 16 8 0
2 8 -1 0
16 -1 0
-1 2 16 0
16 0
2 0
1 10 0
-1 10 0
10 0
16 0
16 0
1 0
7 1 0
7 -1 0
7 0
3 9 1 0
11 3 1 0
11 1 0
3 1 9 11 0
11 -1 0
3 -1 0
11 0
3 0
16 0
16 0
16 0
16 0
5 14 6 0
5 0
6 15 0
6 15 5 0
6 0
5 14 0
5 0
6 0
1 10 0
-1 10 0
10 0
7 1 0
7 -1 0
7 0
1 0
7 1 0
7 -1 0
7 0
10 0
10 0
7 0
10 0
4 0
10 0
7 0
4 0
4 0
4 0
10 0
10 0
7 0
4 0
4 0
10 0
7 0
10 0
10 0
4 0
10 0
10 0
7 0
4 0
10 0
10 0
10 0
4 0
4 0
10 0
7 0
7 0
4 0
10 0
10 0
10 0
10 0
4 0
4 0
7 0
10 0
16 1 0
16 -1 0
16 0
10 1 0
10 -1 0
10 0
7 0
3 0
12 0
12 0
7 3 0
7 3 12 9 0
7 3 12 0
3 9 0
7 12 0
12 3 0
3 0
3 0
7 0
7 3 9 0
12 7 0
12 0
12 0
7 0
7 0
3 12 9 0
3 12 9 0
12 0
7 3 12 0
7 12 0
7 0
12 0
12 3 0
12 7 0
7 0
3 9 0
7 3 12 9 0
3 0
7 3 0
3 0
12 0
7 0
7 3 9 0
3 0
7 0
7 12 0
7 0
3 0
12 3 0
12 0
7 3 9 0
12 0
7 3 12 0
12 0
3 12 9 0
7 3 12 9 0
3 9 0
12 7 0
7 3 0
7 0
3 9 0
7 3 12 9 0
7 0
12 0
7 3 9 0
3 0
7 0
12 0
7 3 0
7 3 12 0
3 12 9 0
7 12 0
7 0
3 0
12 3 0
12 0
12 7 0
7 0
12 0
3 0
4 0
4 0
4 0
4 0
7 0
12 0
3 0
12 0
7 0
12 0
7 12 0
12 0
7 3 12 0
7 0
3 0
3 12 9 0
7 3 0
3 9 0
7 3 9 0
7 3 12 9 0
7 0
12 3 0
12 7 0
3 0
7 12 0
7 0
7 3 12 0
3 12 9 0
12 3 0
7 0
12 0
12 0
12 0
7 3 9 0
7 3 12 9 0
3 0
12 7 0
7 0
3 9 0
7 3 0
3 0
12 3 0
12 0
12 0
3 0
7 0
12 7 0
7 0
3 12 9 0
7 3 12 9 0
3 9 0
3 0
7 0
7 3 12 0
12 0
7 12 0
7 3 9 0
7 3 0
7 0
3 12 9 0
7 3 12 9 0
7 3 9 0
12 0
3 0
7 3 0
7 12 0
12 0
3 0
12 7 0
12 3 0
7 0
7 3 12 0
12 0
7 0
3 9 0
12 0
3 0
7 0
10 0
10 0
10 0
10 0
10 0
10 0
10 0
10 0
10 0
10 0
1 0
10 0
10 0
10 0
10 0
10 0
10 0
10 0
10 0
3 9 0
3 -1 0
3 9 0
3 0
3 0
5 0
6 0
5 14 6 0
6 15 0
5 14 0
6 15 5 0
5 0
6 0
5 0
5 14 6 0
6 15 0
5 14 0
6 0
6 15 5 0
6 15 0
5 14 0
5 14 6 0
5 0
6 15 5 0
6 0
6 15 5 0
6 0
5 14 6 0
5 14 0
5 0
6 15 0
5 0
6 0
16 0
16 0
16 0
16 0
16 0
16 0
16 0
16 0
16 0
16 0
16 0
16 0
13 16 0
7 0
7 1 0
7 -1 0
7 0
10 0
10 0
10 0
10 0
10 0
10 0
10 0
10 0
10 0
10 0
10 0
10 0
10 0
10 0
10 0
10 0
10 0
10 0
10 0
10 0
10 0
10 0
10 0
10 0
10 0
5 0
5 14 6 0
6 15 0
6 0
6 15 5 0
5 14 0
5 14 6 0
5 14 0
6 15 5 0
6 15 0
5 14 6 0
5 14 0
6 15 5 0
6 15 0
7 1 0
7 -1 0
7 0
5 14 0
6 15 0
6 15 5 0
5 14 6 0
5 0
6 0
5 0
6 0
13 0
13 0
1 16 0
-1 16 0
16 0
4 0
4 0
1 10 0
-1 10 0
10 0
10 0
10 0
10 0
10 0
10 0
10 0
10 0
10 0
10 0
10 0
10 -1 0
10 0
7 0
3 0
12 0
3 0
7 12 0
12 0
12 7 0
7 3 9 0
12 0
12 0
7 0
7 0
12 3 0
7 3 12 9 0
7 3 0
3 12 9 0
3 9 0
3 0
7 3 12 0
7 0
3 9 0
12 0
7 3 12 9 0
7 0
3 0
12 7 0
3 0
12 0
12 3 0
3 12 9 0
7 0
7 3 12 0
7 12 0
7 3 0
7 0
12 0
7 3 9 0
7 3 9 0
12 7 0
12 0
12 0
7 0
7 0
7 0
7 3 0
7 3 12 9 0
3 9 0
3 12 9 0
3 0
12 3 0
12 0
7 12 0
3 0
7 3 12 0
3 12 9 0
7 3 12 0
7 0
12 0
7 0
7 3 9 0
12 0
12 0
12 7 0
7 3 12 9 0
7 3 0
7 12 0
7 0
3 0
12 3 0
3 0
3 9 0
3 0
7 0
12 0
1 0
7 0
-8 2 0
2 8 1 0
2 8 -1 0
2 0
1 0
-8 2 0
2 8 1 0
2 8 -1 0
2 0
13 0
13 0
3 0
2 0
2 0
3 0
3 9 0
2 8 0
3 9 0
2 0
3 0
2 8 0
3 0
2 8 0
3 9 0
2 0
3 0
2 8 0
3 9 0
2 0
3 0
2 0
16 1 0
16 -1 0
16 0
1 0
4 1 0
4 -1 0
4 0
3 0
3 0
3 9 0
3 9 0
3 0
3 0
3 9 0
3 0
3 9 0
3 0
-8 0
2 0
13 0
-8 0
2 0
13 0
13 0
13 0
1 0
10 1 0
10 -1 0
10 0
1 4 0
-1 4 0
4 0
10 0
1 0
1 0
10 0
10 0
1 0
10 0
10 0
10 0
10 0
10 0
10 0
10 0
10 0
16 0
16 0
16 1 0
16 0
16 0
16 -1 0
16 0
10 0
10 0
7 1 0
7 -1 0
7 0
4 0
4 0
4 0
4 0
4 0
4 0
4 0
4 0
4 0
10 1 0
10 -1 0
10 0
10 0
10 0
10 0
7 0
3 0
12 0
12 0
7 3 0
7 0
7 12 0
7 3 12 0
3 9 0
7 3 9 0
7 0
12 0
7 0
3 12 9 0
12 7 0
12 0
7 3 12 9 0
3 0
12 3 0
3 0
7 3 12 9 0
3 0
3 0
7 0
7 3 12 0
12 7 0
12 3 0
12 0
12 0
7 0
3 12 9 0
3 9 0
7 3 9 0
7 12 0
7 0
7 3 0
12 0
7 3 9 0
7 12 0
3 0
12 3 0
7 3 0
7 0
3 12 9 0
3 9 0
7 3 12 0
3 0
12 0
12 0
12 0
7 0
7 3 12 9 0
7 0
12 7 0
7 0
7 0
7 0
7 12 0
7 3 12 9 0
7 3 9 0
12 0
12 0
3 0
3 0
12 3 0
3 9 0
12 0
7 3 0
12 7 0
3 12 9 0
7 3 12 0
12 0
7 0
3 0
-8 2 0
2 8 1 0
2 8 -1 0
2 0
10 0
10 0
10 0
10 0
6 0
6 15 5 0
5 14 0
5 0
5 14 6 0
6 15 0
6 0
5 0
-8 2 0
2 8 1 0
2 8 -1 0
2 0
1 0
1 4 0
-1 4 0
4 0
7 1 0
7 -1 0
7 0
16 0
16 0
16 1 0
16 -1 0
16 0
4 1 0
-1 4 0
4 0
1 0
13 -1 0
4 -1 0
13 4 -1 0
13 -1 0
-1 4 13 0
4 -1 0
13 4 0
4 0
4 13 0
13 0
13 0
4 0
10 0
10 0
10 0
10 0
1 0
3 -9 0
3 0
3 9 0
3 9 1 0
3 9 0
3 0
3 9 -1 0
3 0
10 1 0
10 -1 0
10 0
-8 0
2 0
13 0
-8 0
2 0
13 0
7 0
7 0
7 0
7 0
-8 2 0
2 8 1 0
2 8 -1 0
2 0
3 -9 0
3 9 0
3 0
3 0
3 9 0
3 0
3 9 0
3 9 0
3 0
3 0
2 -16 -8 0
2 1 16 8 0
16 1 0
2 8 1 0
2 1 16 0
2 8 -1 0
16 -1 0
-1 2 16 0
-1 2 16 8 0
16 0
2 0
1 0
10 -1 0
10 0
7 1 0
7 -1 0
7 0
10 1 0
10 -1 0
10 0
2 -16 -8 0
2 1 16 8 0
2 8 1 0
16 1 0
2 1 16 0
16 -1 0
2 8 -1 0
-1 2 16 8 0
-1 2 16 0
16 0
2 0
1 10 0
-1 10 0
10 0
2 0
3 0
2 8 3 0
2 0
2 8 0
3 9 0
3 0
3 9 2 0
3 9 0
2 0
3 9 2 0
3 0
2 8 0
2 8 3 0
2 8 3 0
2 8 0
3 0
2 0
3 9 0
3 9 2 0
2 8 3 0
2 8 0
3 9 2 0
2 0
3 9 0
3 0
3 9 2 0
2 8 0
3 9 0
2 0
3 0
2 8 3 0
3 0
2 0
1 0
4 0
4 0
4 0
4 0
4 0
4 0
4 0
4 0
4 0
10 0
10 0
10 0
10 0
10 0
1 4 0
-1 4 0
4 0
10 0
10 0
10 0
1 0
3 0
2 0
2 8 0
2 8 3 0
3 0
2 0
3 9 2 0
3 9 0
3 9 0
2 8 3 0
2 8 0
3 9 2 0
2 0
3 0
3 0
2 8 0
3 9 0
3 9 2 0
2 0
2 8 3 0
3 9 2 0
3 0
3 9 0
2 8 0
2 8 3 0
2 0
2 0
3 9 0
3 0
2 8 0
2 0
3 0
10 1 0
10 -1 0
10 0
1 10 0
-1 10 0
10 0
1 4 0
-1 4 0
4 0
1 4 0
-1 4 0
4 0
13 1 0
13 -1 0
13 0
6 15 0
6 15 5 0
5 14 6 0
5 0
6 0
5 14 0
5 0
6 0
1 0
7 1 0
10 7 1 0
7 1 10 0
10 1 0
10 -1 0
10 7 -1 0
-1 7 10 0
7 -1 0
10 0
7 0
13 0
13 0
13 0
13 0
2 -8 0
2 8 1 0
2 8 -1 0
2 0
1 13 0
-1 13 0
13 0
1 0
4 0
4 0
4 0
4 0
2 -13 -4 -8 0
2 4 1 13 0
2 4 1 8 13 0
13 4 1 0
4 2 1 0
2 8 1 0
2 1 8 13 0
13 2 1 0
4 1 0
13 1 0
2 4 1 8 0
4 2 -1 0
-1 2 4 8 13 0
-1 2 8 13 0
-1 2 4 8 0
13 4 -1 0
2 8 -1 0
13 -1 0
-1 2 4 13 0
13 2 -1 0
4 -1 0
13 0
2 0
4 0
1 4 0
-1 4 0
4 0
7 0
3 0
12 0
2 0
11 0
3 12 9 0
7 3 9 0
7 3 0
7 12 0
2 0
2 0
12 3 0
7 0
11 0
11 2 0
3 0
11 0
7 0
7 3 12 0
7 3 12 9 0
11 0
3 9 0
2 8 11 0
12 7 0
12 0
2 8 0
12 0
7 0
3 0
12 0
3 0
3 9 0
3 12 9 0
7 0
7 0
11 0
7 12 0
12 0
11 0
11 2 0
7 3 9 0
7 3 12 0
7 3 12 9 0
12 7 0
2 0
7 3 0
7 0
2 8 0
2 8 11 0
12 0
12 0
2 0
3 0
11 0
12 3 0
12 3 0
7 3 9 0
7 0
7 3 0
3 0
2 8 11 0
2 8 0
7 12 0
3 12 9 0
7 3 12 9 0
2 0
11 0
11 0
11 2 0
3 9 0
7 0
12 0
12 0
7 3 12 0
2 0
7 0
3 0
12 0
11 0
12 7 0
7 3 9 0
2 8 11 0
2 0
12 3 0
12 7 0
3 0
11 2 0
7 0
11 0
3 12 9 0
3 9 0
12 0
3 0
2 0
7 0
11 0
7 3 0
12 0
11 0
2 8 0
7 12 0
7 3 12 0
7 3 12 9 0
12 0
7 0
7 0
11 0
3 0
2 0
12 0
13 0
13 0
2 -8 0
2 8 1 0
2 8 -1 0
2 0
4 1 0
4 -1 0
4 0
1 0
1 0
4 -1 0
4 0
7 1 0
7 -1 0
7 0
15 5 6 0
5 14 0
14 5 6 0
-14 16 0
6 15 0
-5 16 0
15 5 6 0
5 14 0
14 5 6 0
-14 16 0
6 15 0
-5 16 0
10 1 0
10 -1 0
10 0
-14 -15 6 0
-6 -14 5 0
-5 -15 6 0
-14 5 -15 0
6 15 1 0
15 1 5 6 0
1 14 5 6 0
5 14 1 0
6 15 -1 0
-1 15 5 6 0
-1 14 5 6 0
5 14 -1 0
5 0
6 0
6 15 5 0
6 15 0
5 0
6 0
5 14 6 0
5 14 0
5 14 6 0
6 0
5 0
6 15 5 0
6 15 0
5 14 0
6 0
5 14 0
5 14 6 0
6 15 0
5 0
6 15 5 0
5 0
5 14 6 0
6 15 5 0
6 15 0
5 14 0
6 0
5 0
6 0
4 1 0
4 -1 0
4 0
10 0
10 0
10 0
10 0
10 0
10 0
10 0
10 0
10 0
10 0
10 0
10 0
12 0
3 0
7 0
12 3 0
12 7 0
7 3 0
7 12 0
7 0
7 3 9 0
7 3 12 9 0
12 0
3 9 0
7 0
3 0
3 12 9 0
3 0
12 0
7 3 12 0
7 0
12 0
3 0
3 12 9 0
12 0
12 7 0
3 0
7 3 9 0
7 0
7 3 0
12 0
7 12 0
12 0
7 0
7 3 12 9 0
7 3 12 0
3 9 0
12 3 0
7 0
12 0
12 3 0
7 3 12 0
12 0
7 3 0
12 7 0
7 3 9 0
7 0
7 0
3 9 0
3 0
7 0
7 3 12 9 0
3 12 9 0
12 0
3 0
7 12 0
7 3 0
12 0
7 0
12 0
7 3 9 0
12 0
12 3 0
7 0
7 0
3 9 0
12 7 0
3 0
7 3 12 9 0
7 12 0
3 12 9 0
3 0
7 3 12 0
7 12 0
3 12 9 0
3 9 0
3 0
12 0
7 3 12 9 0
3 0
12 0
12 0
7 0
7 3 12 0
7 3 0
12 3 0
7 0
7 3 9 0
7 0
12 7 0
12 0
3 0
7 0
6 0
5 14 0
5 14 6 0
6 15 0
5 0
6 15 5 0
5 0
6 0
-8 2 0
2 8 1 0
2 8 -1 0
2 0
1 0
1 0
2 8 -1 0
-1 2 8 13 0
13 -1 0
13 2 -1 0
2 8 13 0
13 2 0
2 8 0
13 0
1 0
13 0
4 0
4 0
4 0
4 0
4 0
13 0
4 0
4 0
13 0
4 0
4 0
4 0
13 0
4 0
4 0
4 0
4 0
1 0
10 0
10 0
10 0
10 0
10 0
10 0
10 0
10 0
1 10 0
-1 10 0
10 0
3 0
11 0
2 0
7 0
12 0
7 0
7 3 12 0
12 7 0
7 3 0
7 3 12 9 0
12 0
2 0
11 0
3 0
3 12 9 0
11 2 0
2 8 11 0
11 0
2 8 0
7 0
7 3 9 0
3 0
12 0
7 12 0
7 0
3 9 0
2 0
11 0
12 3 0
12 0
12 0
3 0
11 0
11 0
7 12 0
12 7 0
3 0
7 0
2 0
3 12 9 0
11 0
7 3 12 9 0
7 3 9 0
2 0
2 8 0
11 2 0
2 8 11 0
7 0
12 0
7 0
3 9 0
7 3 12 0
12 0
12 3 0
7 3 0
3 9 0
3 0
2 0
12 0
3 0
11 0
3 12 9 0
2 8 0
11 2 0
7 0
7 12 0
2 0
7 0
7 3 12 0
7 3 9 0
12 0
11 0
11 0
7 3 12 9 0
7 3 0
2 8 11 0
12 7 0
12 0
12 3 0
7 0
2 8 0
7 12 0
3 9 0
12 0
11 0
7 3 9 0
3 0
12 0
3 12 9 0
7 0
2 8 11 0
12 3 0
12 7 0
12 0
7 0
7 3 0
11 2 0
2 0
7 0
11 0
11 0
7 3 12 9 0
3 0
7 3 12 0
2 0
11 0
2 0
3 0
7 0
12 0
1 4 0
-1 4 0
4 0
4 1 0
4 -1 0
4 0
7 0
11 0
3 0
12 0
2 0
12 3 0
2 0
7 3 0
7 3 9 0
3 12 9 0
2 8 0
12 7 0
7 12 0
7 3 12 9 0
2 8 11 0
12 0
3 0
11 0
7 3 12 0
2 0
7 0
7 0
12 0
11 0
11 2 0
7 0
11 0
12 0
3 9 0
3 0
11 2 0
3 0
7 0
3 9 0
7 3 12 0
7 0
3 12 9 0
2 8 11 0
12 7 0
7 3 9 0
11 0
12 0
7 3 0
11 0
7 12 0
12 3 0
12 0
7 3 12 9 0
3 0
7 0
11 0
2 8 0
12 0
2 0
2 0
12 7 0
12 0
7 3 9 0
2 8 11 0
3 9 0
7 0
7 12 0
2 0
3 0
7 3 12 9 0
2 0
2 8 0
12 0
3 12 9 0
11 2 0
7 3 12 0
3 0
7 0
11 0
11 0
12 3 0
12 0
7 0
11 0
7 3 0
3 0
3 12 9 0
7 3 0
12 0
7 3 12 0
12 7 0
7 3 12 9 0
7 0
2 8 11 0
11 2 0
11 0
7 3 9 0
7 0
2 0
7 0
12 3 0
2 8 0
12 0
2 0
3 0
11 0
3 9 0
7 12 0
11 0
12 0
-8 2 0
2 8 1 0
2 8 -1 0
2 0
2 0
16 0
2 8 0
16 2 0
2 0
2 8 16 0
16 0
16 0
2 8 0
16 0
2 8 16 0
2 0
16 2 0
16 0
16 0
2 0
16 2 0
16 0
2 8 0
2 8 16 0
16 0
2 0
2 8 16 0
16 2 0
16 0
2 8 0
16 0
2 0
5 0
7 0
6 0
5 0
6 0
7 0
5 14 0
5 14 6 0
7 0
6 15 0
6 15 5 0
5 14 0
7 0
6 15 0
7 0
5 0
6 0
5 14 6 0
6 15 5 0
5 14 6 0
5 14 0
7 0
7 0
6 15 5 0
6 0
6 15 0
5 0
5 14 6 0
6 15 0
7 0
7 0
5 0
6 0
5 14 0
6 15 5 0
16 1 0
16 -1 0
16 0
1 0
7 1 0
10 7 1 0
10 1 0
7 1 10 0
7 -1 0
-1 7 10 0
10 -1 0
10 7 -1 0
10 0
7 0
4 0
4 0
-8 2 0
2 8 1 0
2 8 -1 0
2 0
1 0
4 0
3 0
4 0
4 3 0
4 0
3 9 0
4 0
3 0
4 3 9 0
3 0
3 0
4 3 9 0
4 0
4 0
4 0
4 3 0
3 9 0
3 0
3 0
3 0
4 0
4 0
4 0
3 9 0
4 3 9 0
4 3 0
3 0
4 3 9 0
4 3 0
3 0
4 0
4 0
3 9 0
4 0
10 1 0
10 -1 0
10 0
3 0
2 0
2 8 0
3 9 2 0
3 0
2 8 3 0
3 9 0
2 0
3 9 0
3 9 2 0
2 0
2 8 0
3 0
2 8 3 0
2 0
3 0
2 8 3 0
2 8 0
3 9 0
3 9 2 0
3 9 2 0
2 8 0
2 8 3 0
3 9 0
3 0
2 0
2 0
3 9 0
2 8 0
3 0
2 0
3 0
7 1 10 0
10 1 0
7 1 0
10 7 1 0
-1 7 10 0
10 7 -1 0
7 -1 0
10 -1 0
7 0
10 0
1 0
1 10 0
-1 10 0
10 0
1 0
4 -1 0
4 0
1 0
16 0
7 0
2 0
2 8 0
16 0
7 0
2 7 8 0
2 0
2 7 0
7 0
16 0
2 0
16 0
7 0
2 0
7 0
7 0
2 7 8 0
2 8 0
16 0
2 0
16 0
16 0
2 7 0
7 0
2 7 0
2 0
7 0
7 0
7 0
2 7 8 0
2 8 0
16 0
16 0
16 0
2 0
2 7 8 0
16 0
7 0
7 0
2 7 0
2 0
2 8 0
7 0
16 0
2 0
16 0
1 13 0
-1 13 0
13 0
7 0
7 0
7 0
7 0
7 0
7 0
7 0
7 0
7 0
7 0
2 -16 -8 0
2 1 16 8 0
16 1 0
2 8 1 0
2 1 16 0
2 8 -1 0
-1 2 16 8 0
-1 2 16 0
16 -1 0
16 0
2 0
1 0
-1 4 0
4 0
4 0
4 0
3 0
2 0
2 8 3 0
3 9 2 0
3 9 0
2 0
2 8 0
3 0
2 8 3 0
3 9 2 0
3 9 0
2 0
2 8 0
3 0
3 9 2 0
2 0
2 8 0
3 9 0
3 0
2 8 3 0
3 0
2 0
2 8 0
3 9 0
3 0
2 0
1 0
-1 4 0
4 0
1 0
1 0
10 0
10 0
10 0
10 0
3 0
2 0
3 9 0
2 0
3 0
2 8 0
2 8 3 0
3 9 2 0
2 0
2 8 0
3 9 0
3 9 2 0
2 8 3 0
3 0
3 9 0
3 9 2 0
2 8 0
3 0
2 8 3 0
2 0
2 0
2 8 0
3 9 0
2 8 3 0
3 0
3 9 2 0
2 8 0
2 0
3 9 0
3 0
3 0
2 0
4 0
4 0
4 0
4 0
4 0
4 0
4 0
4 0
4 0
4 0
1 0
1 0
-5 -15 6 0
-14 -15 6 0
-14 5 -15 0
-6 -14 5 0
5 14 1 0
1 14 5 6 0
6 15 1 0
15 1 5 6 0
6 15 -1 0
5 14 -1 0
-1 15 5 6 0
-1 14 5 6 0
5 0
6 0
5 14 0
6 15 0
6 0
6 15 5 0
5 0
5 14 6 0
5 0
6 0
3 0
2 0
3 0
2 0
3 9 0
3 9 2 0
2 8 3 0
2 8 0
3 0
2 0
2 8 0
2 8 3 0
3 9 2 0
3 9 0
2 8 0
3 0
3 9 2 0
2 0
2 8 3 0
3 9 0
2 0
2 8 0
3 9 0
3 0
3 9 2 0
2 8 3 0
2 8 0
2 0
3 9 0
3 0
2 0
3 0
3 0
12 0
2 0
7 0
7 3 12 0
12 0
7 0
3 12 9 0
3 0
12 7 0
12 3 0
3 0
2 0
7 0
7 3 12 9 0
7 3 9 0
7 3 0
7 0
12 0
7 12 0
2 8 0
3 9 0
12 0
3 12 9 0
7 0
12 7 0
3 0
12 0
3 0
7 3 12 9 0
12 3 0
7 0
7 12 0
12 0
7 3 9 0
3 9 0
2 8 0
7 0
2 0
12 0
7 3 12 0
7 3 0
3 12 9 0
12 0
2 8 0
7 12 0
12 3 0
12 0
12 7 0
7 3 12 9 0
2 0
3 0
7 0
3 0
7 0
12 0
7 3 9 0
7 0
3 9 0
7 3 0
7 3 12 0
3 0
2 8 0
12 0
7 3 9 0
7 3 0
7 3 12 9 0
7 12 0
3 9 0
12 3 0
7 0
7 0
12 7 0
2 0
7 0
3 0
12 0
7 3 12 0
12 0
3 12 9 0
3 0
7 0
12 0
2 0
10 0
10 0
13 0
3 0
2 0
3 9 2 0
2 8 0
3 0
3 9 0
2 8 3 0
2 0
2 8 3 0
2 0
3 9 0
2 8 0
3 9 2 0
3 0
2 8 0
2 8 3 0
2 0
3 9 2 0
3 0
3 9 0
3 9 0
3 0
2 8 3 0
3 9 2 0
2 0
2 8 0
3 0
3 9 0
2 0
2 8 0
3 0
2 0
7 3 12 9 0
3 0
12 3 0
7 3 9 0
3 0
12 0
7 12 0
3 12 9 0
7 3 12 0
7 3 0
7 0
3 9 0
7 0
12 7 0
7 0
12 0
12 0
7 3 12 9 0
3 0
12 3 0
7 3 9 0
3 0
12 0
7 12 0
3 12 9 0
7 3 12 0
7 3 0
7 0
3 9 0
7 0
12 7 0
7 0
12 0
12 0
-8 2 0
2 8 1 0
2 8 -1 0
2 0
11 0
12 0
3 0
7 0
2 0
2 8 0
12 0
12 0
7 3 12 0
3 0
7 12 0
11 2 0
7 3 9 0
11 0
12 0
11 0
12 3 0
3 9 0
3 0
11 0
7 0
7 0
7 3 0
12 7 0
2 0
3 12 9 0
2 8 11 0
7 3 12 9 0
2 0
7 0
7 3 0
7 0
12 0
2 8 11 0
12 7 0
2 0
7 0
11 0
7 12 0
11 0
11 2 0
7 3 12 9 0
2 0
3 0
7 3 12 0
2 8 0
11 0
7 3 9 0
12 0
7 0
3 0
3 9 0
3 12 9 0
12 3 0
12 0
7 0
2 0
3 9 0
12 7 0
3 0
7 3 9 0
7 3 12 9 0
7 0
2 8 11 0
7 3 0
11 0
2 0
12 0
11 0
12 0
11 0
7 3 12 0
11 2 0
12 0
3 12 9 0
7 12 0
7 0
12 3 0
3 0
2 8 0
2 0
12 0
7 3 12 9 0
2 8 0
3 0
3 12 9 0
7 3 0
7 12 0
12 3 0
2 0
7 0
12 7 0
7 3 12 0
12 0
3 9 0
7 0
11 0
11 0
11 0
12 0
3 0
7 3 9 0
2 8 11 0
11 2 0
7 0
16 1 0
7 1 16 0
7 1 0
7 1 16 0
16 -1 0
-1 7 16 0
7 -1 0
-1 7 16 0
7 0
16 0
1 0
16 0
16 0
16 0
16 0
16 0
16 0
7 1 0
7 -1 0
7 0
10 0
10 0
7 10 0
7 0
10 7 0
7 0
7 10 0
7 0
10 0
10 0
7 0
10 7 0
10 7 0
7 0
7 0
10 0
7 10 0
10 0
10 0
7 10 0
7 0
7 0
10 7 0
10 0
10 7 0
10 0
7 10 0
7 0
7 0
10 0
7 0
10 0
10 7 0
10 0
7 0
7 10 0
16 0
16 0
16 0
16 0
16 0
16 0
16 0
16 0
16 0
12 0
7 0
3 0
12 7 0
7 12 0
3 12 9 0
7 3 0
3 0
12 0
7 3 9 0
7 3 12 9 0
7 0
3 0
7 0
12 0
12 3 0
7 0
12 0
7 3 12 0
3 9 0
7 12 0
7 0
7 0
7 3 12 9 0
3 0
3 12 9 0
3 0
7 3 9 0
7 0
12 0
12 7 0
12 0
7 3 0
7 3 12 0
12 0
12 3 0
3 9 0
12 7 0
7 3 9 0
12 0
12 3 0
7 12 0
7 0
3 9 0
3 12 9 0
3 0
7 3 12 0
7 0
3 0
7 3 12 9 0
7 3 0
12 0
12 0
7 0
12 7 0
3 9 0
7 3 12 9 0
7 0
3 12 9 0
3 0
7 3 9 0
7 3 12 0
12 3 0
3 0
12 0
7 12 0
7 3 0
12 0
12 0
7 0
7 0
7 0
3 0
12 0
4 0
4 0
4 0
4 0
13 0
13 0
13 0
13 0
13 0
13 0
13 0
13 0
13 0
7 1 0
10 7 1 0
10 1 0
7 1 10 0
7 -1 0
10 -1 0
10 7 -1 0
-1 7 10 0
10 0
7 0
2 0
3 0
3 0
2 8 3 0
3 9 0
3 9 2 0
2 0
2 8 0
2 0
2 8 3 0
2 8 0
3 9 0
3 9 2 0
3 0
3 9 2 0
3 0
2 8 0
3 9 0
2 8 3 0
2 0
3 9 0
3 0
3 9 2 0
2 0
2 8 3 0
2 8 0
2 0
3 9 0
3 0
2 8 0
3 0
2 0
6 0
5 14 0
5 14 6 0
6 15 0
5 0
6 15 5 0
1 4 0
-1 4 0
4 0
7 1 0
7 -1 0
7 0
3 0
2 0
3 9 2 0
2 8 0
2 0
3 9 0
2 8 3 0
3 0
3 9 0
2 8 0
2 8 3 0
3 0
2 0
3 9 2 0
2 8 3 0
3 9 2 0
2 0
2 8 0
3 0
3 9 0
2 8 0
3 0
2 8 3 0
2 0
3 9 0
3 9 2 0
2 8 0
3 0
3 9 0
2 0
3 0
2 0
4 0
4 0
1 10 0
-1 10 0
10 0
16 1 0
16 -1 0
16 0
4 0
4 0
4 0
4 0
2 0
3 0
2 0
3 9 0
3 9 2 0
2 8 3 0
2 8 0
3 0
2 8 3 0
3 0
3 9 2 0
2 0
2 8 0
3 9 0
3 0
3 9 2 0
3 9 0
2 0
2 8 3 0
2 8 0
3 9 0
3 9 2 0
2 8 0
3 0
2 8 3 0
2 0
3 9 2 0
3 9 0
2 8 3 0
3 0
2 0
2 8 0
3 0
2 0
10 1 0
10 -1 0
10 0
7 0
16 0
16 0
16 0
7 0
7 0
7 0
16 0
16 0
7 0
16 0
16 0
7 0
7 0
7 0
7 0
16 0
16 0
16 0
7 0
7 1 0
10 7 1 0
7 1 10 0
10 1 0
-1 7 10 0
10 -1 0
10 7 -1 0
7 -1 0
10 0
7 0
10 0
10 0
4 1 0
4 -1 0
4 0
10 1 0
10 -1 0
10 0
2 0
16 0
16 0
2 8 0
16 0
2 0
16 0
2 0
2 8 0
16 0
16 0
2 0
2 8 0
16 0
16 0
16 0
2 8 0
2 0
2 0
16 0
10 0
10 0
7 -12 0
3 9 7 -12 0
3 9 -12 0
7 3 -12 0
7 -12 0
3 9 7 -12 0
3 9 -12 0
7 3 -12 0
16 1 0
16 -1 0
16 0
1 0
13 -1 0
-1 4 13 0
13 4 -1 0
13 -1 0
4 -1 0
4 -1 0
13 0
4 0
4 13 0
13 0
4 0
13 4 0
7 1 0
7 -1 0
7 0
-8 2 0
2 0
2 0
4 0
2 8 0
2 8 0
2 0
3 9 0
11 0
2 8 0
2 8 13 0
16 0
4 0
4 0
16 0
12 0
7 0
11 0
2 0
13 2 0
2 16 0
2 8 0
4 0
2 8 0
13 2 0
14 5 0
2 4 8 0
7 0
2 0
2 0
3 9 0
2 8 0
2 8 0
2 0
4 0
2 8 0
4 2 0
2 4 8 0
13 0
16 0
3 9 0
4 0
2 8 0
13 0
4 0
13 0
10 0
2 8 0
4 0
4 0
16 0
2 0
4 0
7 0
2 8 13 0
2 0
3 0
3 9 0
4 0
2 0
2 0
16 0
13 0
16 0
2 0
2 0
4 0
11 3 0
13 0
2 4 8 0
2 0
13 4 0
13 0
2 0
10 0
12 3 0
2 0
4 0
2 0
5 0
3 9 0
2 8 13 0
13 2 4 0
2 8 0
2 0
2 8 0
3 12 9 0
2 16 8 0
3 0
4 0
3 9 0
4 0
13 0
2 0
2 4 0
2 8 0
4 0
4 0
4 0
4 2 0
4 0
3 9 11 0
4 0
4 0
2 4 8 0
2 0
2 8 0
13 2 0
16 0
4 0
2 8 13 0
4 0
3 0
5 0
16 0
3 0
4 0
3 9 0
4 0
4 0
3 0
3 9 0
4 0
2 4 0
13 0
2 8 0
13 2 0
2 0
2 0
2 4 0
2 4 8 0
3 0
13 2 0
13 2 0
3 0
3 0
2 8 13 0
3 9 0
4 0
5 0
2 8 13 0
4 2 0
4 0
2 8 0
4 0
3 0
4 0
12 0
4 0
2 4 8 13 0
4 0
2 8 0
13 0
4 0
2 8 0
2 4 0
2 0
2 4 8 0
16 0
2 4 0
12 0
3 9 0
4 0
4 0
2 8 0
2 0
2 8 0
3 9 0
2 16 8 0
3 0
3 0
4 0
14 5 0
2 8 13 0
2 0
2 0
2 0
3 0
13 2 0
2 0
13 0
2 0
4 0
3 0
2 4 8 0
4 2 0
4 0
2 0
2 8 13 0
11 3 0
3 0
4 0
2 0
4 0
3 0
2 4 8 13 0
4 2 0
2 0
3 9 0
13 0
2 4 0
13 2 0
2 8 13 0
4 0
2 0
4 0
2 8 0
2 4 8 0
12 3 0
3 9 0
16 0
2 0
16 0
3 9 0
10 0
2 4 8 0
2 8 0
2 0
2 8 13 0
2 0
2 8 0
3 0
4 0
4 0
4 0
7 0
4 0
13 2 0
11 0
11 0
2 8 0
4 2 0
2 8 0
13 2 0
4 0
4 0
2 8 0
2 8 13 0
13 2 0
3 0
2 8 0
2 0
13 2 4 0
16 0
4 0
4 0
13 2 0
4 0
3 9 11 0
2 0
7 0
16 0
3 0
16 0
2 0
3 9 0
4 0
4 0
16 0
2 0
3 9 0
5 0
7 0
13 0
4 0
16 0
2 8 0
13 4 0
2 8 0
2 0
2 8 0
13 0
4 0
2 8 0
4 0
2 0
5 0
10 0
4 0
2 0
4 0
13 0
12 0
5 0
2 8 0
2 0
3 12 9 0
13 0
4 0
4 0
4 0
2 4 8 0
3 9 0
2 8 13 0
3 9 0
4 0
2 16 0
13 0
4 0
2 0
2 8 0
2 8 0
12 0
2 0
2 4 8 0
2 0
16 0
2 8 0
3 9 0
2 0
4 0
2 8 0
3 0
12 0
3 9 0
2 8 0
2 4 8 0
16 0
2 0
2 8 13 0
3 12 9 0
2 0
4 0
2 0
4 0
16 0
3 0
4 0
2 8 0
2 4 8 0
2 0
3 0
3 0
4 0
4 0
4 0
5 0
13 2 0
10 0
4 0
2 0
4 0
2 4 0
3 0
2 0
13 2 0
4 0
3 0
13 4 0
4 0
2 4 8 13 0
13 2 0
4 0
2 8 0
13 0
4 0
7 0
2 8 13 0
2 0
2 0
4 0
2 16 8 0
2 4 8 0
4 0
13 0
3 0
3 9 0
2 4 0
13 0
16 0
2 8 0
4 0
7 0
2 8 0
4 0
4 0
5 0
2 0
2 8 0
13 2 0
2 8 13 0
2 0
4 0
7 0
3 9 0
4 0
4 0
2 16 0
2 8 0
3 0
2 4 8 0
2 0
13 0
4 2 0
13 2 0
3 9 11 0
14 5 0
4 0
4 2 0
2 8 0
2 8 0
3 9 0
4 0
13 0
4 2 0
2 0
2 4 0
2 8 0
2 0
2 8 13 0
2 0
2 0
3 9 0
2 8 13 0
4 0
4 0
4 0
13 2 4 0
4 0
2 0
16 0
2 0
13 0
2 8 0
10 0
5 0
13 0
16 0
3 9 0
4 0
3 9 0
11 0
4 0
11 0
2 8 0
16 0
16 0
4 0
2 0
12 3 0
3 9 0
4 0
13 0
3 0
2 8 13 0
11 3 0
4 0
13 2 0
2 0
10 0
10 0
10 0
10 0
10 0
10 0
10 0
10 0
10 0
10 0
10 0
10 0
13 0
13 0
16 1 0
16 -1 0
16 0
3 0
2 0
3 0
3 9 0
2 0
2 0
3 0
2 8 0
2 0
3 0
2 0
3 9 0
3 0
2 0
2 0
2 8 0
3 0
3 0
2 0
2 0
3 9 0
2 0
2 8 0
2 0
3 0
3 9 0
2 0
2 8 0
3 0
2 0
10 0
10 0
10 0
10 0
10 0
10 0
10 0
10 0
10 0
10 0
4 1 0
4 -1 0
4 0
1 0
11 0
2 0
3 0
4 0
2 8 0
4 0
3 9 11 0
4 2 0
4 0
11 3 0
3 9 0
2 8 4 0
3 0
11 0
2 0
11 0
11 0
3 9 11 0
4 0
11 3 0
2 0
3 0
11 0
3 9 0
2 8 4 0
4 0
2 8 0
4 2 0
3 9 0
11 3 0
2 8 4 0
3 9 11 0
2 8 0
11 0
4 2 0
4 0
3 0
4 0
11 0
2 0
11 0
4 2 0
3 9 11 0
2 8 0
3 9 0
11 0
11 3 0
3 0
4 0
2 0
2 8 4 0
4 0
1 0
1 0
13 -1 0
13 -1 0
4 -1 0
-1 4 13 0
13 4 -1 0
4 -1 0
4 0
13 0
4 13 0
4 0
13 0
13 4 0
3 0
2 0
2 8 0
2 0
3 0
3 9 0
2 0
2 8 0
3 0
3 9 0
2 0
3 9 0
2 8 0
3 0
2 8 0
3 9 0
2 0
3 0
3 0
2 0
4 1 0
4 -1 0
4 0
7 3 12 0
16 0
3 12 9 0
12 0
7 3 12 9 0
7 0
3 9 0
7 12 0
3 0
7 3 9 0
12 3 0
12 7 0
7 0
7 3 0
16 0
7 0
16 0
3 0
12 0
12 0
7 3 0
16 0
3 9 0
3 12 9 0
3 0
12 0
7 3 12 0
7 0
3 0
7 12 0
12 0
16 0
16 0
7 3 9 0
7 0
12 3 0
7 0
12 0
12 7 0
7 3 12 9 0
7 3 0
16 0
3 9 0
3 12 9 0
3 0
12 0
7 3 12 0
7 0
3 0
7 12 0
12 0
16 0
16 0
7 3 9 0
7 0
12 3 0
7 0
12 0
12 7 0
7 3 12 9 0
3 -9 0
3 0
3 9 0
3 9 0
3 0
3 9 0
3 0
3 9 0
3 0
3 0
2 0
11 0
12 0
7 0
3 0
11 0
2 8 11 0
7 3 9 0
7 0
2 0
3 0
12 7 0
3 12 9 0
12 3 0
12 0
11 0
11 2 0
3 0
7 3 12 0
3 9 0
12 0
7 3 0
7 3 12 9 0
2 8 0
2 0
7 12 0
7 0
11 0
12 0
7 0
2 0
7 3 9 0
7 3 0
7 3 12 0
12 3 0
3 0
12 0
2 8 11 0
11 2 0
7 12 0
12 0
2 8 0
7 0
11 0
12 0
3 12 9 0
2 0
7 0
7 3 12 9 0
12 7 0
7 0
11 0
3 0
11 0
3 9 0
3 12 9 0
2 0
7 12 0
3 0
12 3 0
2 0
11 2 0
12 0
3 9 0
7 3 0
7 3 12 9 0
7 0
11 0
12 0
7 0
7 3 9 0
2 8 11 0
11 0
7 3 12 0
12 0
11 0
3 0
2 8 0
12 7 0
7 0
7 0
7 3 0
7 0
2 0
2 0
2 8 11 0
11 0
7 3 12 9 0
3 0
12 0
12 3 0
3 12 9 0
3 9 0
7 3 12 0
12 0
7 3 9 0
7 12 0
3 0
12 7 0
11 0
7 0
11 0
2 8 0
12 0
11 2 0
4 0
4 0
4 0
4 0
4 0
4 0
4 0
4 0
4 0
2 -8 0
2 8 1 0
2 8 -1 0
2 0
16 1 0
16 -1 0
16 0
10 0
10 0
10 0
10 0
10 0
10 0
10 0
10 0
10 0
10 0
10 0
10 0
10 0
10 0
10 0
-8 2 0
2 0
2 8 0
2 8 0
2 0
2 8 0
2 0
2 0
10 1 0
10 -1 0
10 0
10 0
10 0
10 0
10 0
10 0
10 0
10 0
10 0
10 0
10 0
10 0
10 0
10 0
10 0
10 0
10 0
10 0
10 0
10 0
10 0
6 0
5 14 6 0
6 15 5 0
6 15 0
5 14 0
5 0
5 14 0
6 15 0
5 14 6 0
6 15 5 0
5 14 0
6 15 0
5 14 6 0
6 15 5 0
1 0
16 -1 0
16 0
6 15 0
5 0
5 14 0
5 14 6 0
6 15 5 0
6 0
5 0
5 14 6 0
6 15 5 0
5 14 0
6 0
6 15 0
5 0
6 0
3 0
2 0
2 8 0
3 9 2 0
2 0
3 9 0
3 0
2 8 3 0
3 9 2 0
2 0
2 8 0
2 8 3 0
3 9 0
3 0
2 8 3 0
3 9 2 0
3 9 0
2 8 0
3 0
2 0
2 0
3 0
1 0
2 -16 -8 0
16 1 0
2 1 16 0
2 8 1 0
2 1 16 8 0
2 8 -1 0
-1 2 16 0
-1 2 16 8 0
16 -1 0
16 0
2 0
2 -16 -8 0
2 1 16 8 0
16 1 0
2 8 1 0
2 1 16 0
-1 2 16 0
-1 2 16 8 0
16 -1 0
2 8 -1 0
16 0
2 0
10 0
-8 0
2 0
13 0
-8 0
2 0
13 0
10 0
10 0
10 0
10 0
10 0
10 0
10 0
10 0
10 0
10 0
10 0
10 0
10 0
10 0
10 0
10 0
10 0
16 1 0
16 -1 0
16 0
4 0
4 0
4 0
4 0
4 0
4 0
4 0
4 0
4 0
7 1 0
7 -1 0
7 0
1 0
1 0
