p cnf 16 79
1 0
1 0
-13 16 0
-15 7 14 13 -4 0
1 0
1 0
-9 1 0
1 0
15 0
1 0
-4 -3 0
1 0
-12 5 0
-16 -3 0
15 -11 0
7 14 13 -4 0
-12 6 0
1 0
1 0
15 -7 0
1 0
-14 4 3 0
1 0
-15 7 14 13 -3 0
-7 -13 0
10 -3 0
1 0
-12 5 2 0
-9 5 0
-9 6 2 0
4 3 -2 0
1 0
1 0
10 -4 0
-14 -13 0
-9 1 6 0
-4 -16 0
-13 0
1 0
4 16 3 0
-9 5 2 0
-12 6 2 0
1 0
1 0
-12 1 0
-3 0
7 14 13 -3 0
-9 6 5 0
1 0
-12 1 6 0
15 4 3 -11 0
1 0
4 3 -11 0
1 0
1 0
-9 2 0
1 0
-12 1 2 0
-9 1 2 0
-7 0
1 0
1 0
-9 1 5 0
1 0
1 0
-9 6 0
1 0
1 0
-7 -14 0
1 0
-12 6 5 0
-12 2 0
-3 0
1 0
1 0
-10 4 3 0
-7 4 3 0
-12 1 5 0
-8 4 0
