p cnf 16 293
-13 0
-10 0
-13 -10 0
-8 0
-4 0
-2 0
-5 0
6 0
6 0
6 0
6 0
6 0
6 0
6 0
6 0
6 0
6 0
6 0
-3 0
-9 0
-7 0
-11 0
-12 0
-7 -9 0
-11 -9 0
-9 -12 0
-11 -7 0
-7 -12 0
-11 -12 0
-16 0
-14 0
-15 0
-14 -15 0
-1 0
-1 0
-1 0
-1 3 0
-1 0
-1 0
-1 11 7 9 12 -3 0
-1 16 7 9 12 -3 0
-1 7 15 9 12 -3 0
-1 11 7 9 12 -3 0
-1 16 7 9 12 -3 0
-1 7 15 9 12 -3 0
-1 11 7 9 12 -3 0
-1 16 7 9 12 -3 0
-1 7 15 9 12 -3 0
-1 11 9 12 -3 0
-1 16 9 12 -3 0
-1 15 9 12 -3 0
-1 11 9 12 -3 0
-1 16 9 12 -3 0
-1 15 9 12 -3 0
-1 11 9 12 -3 0
-1 16 9 12 -3 0
-1 15 9 12 -3 0
-1 11 9 12 -3 0
-1 16 9 12 -3 0
-1 15 9 12 -3 0
-1 11 9 12 -3 0
-1 16 9 12 -3 0
-1 15 9 12 -3 0
-1 11 9 12 -3 0
-1 16 9 12 -3 0
-1 15 9 12 -3 0
-1 11 7 12 -3 0
-1 16 7 12 -3 0
-1 7 15 12 -3 0
-1 11 7 12 -3 0
-1 16 7 12 -3 0
-1 7 15 12 -3 0
-1 11 7 12 -3 0
-1 16 7 12 -3 0
-1 7 15 12 -3 0
-1 11 12 -3 0
-1 16 12 -3 0
-1 15 12 -3 0
-1 11 12 -3 0
-1 16 12 -3 0
-1 15 12 -3 0
-1 11 12 -3 0
-1 16 12 -3 0
-1 15 12 -3 0
-1 11 12 -3 0
-1 16 12 -3 0
-1 15 12 -3 0
-1 11 12 -3 0
-1 16 12 -3 0
-1 15 12 -3 0
-1 11 12 -3 0
-1 16 12 -3 0
-1 15 12 -3 0
-1 11 7 12 -3 0
-1 16 7 12 -3 0
-1 7 15 12 -3 0
-1 11 7 12 -3 0
-1 16 7 12 -3 0
-1 7 15 12 -3 0
-1 11 7 12 -3 0
-1 16 7 12 -3 0
-1 7 15 12 -3 0
-1 11 12 -3 0
-1 16 12 -3 0
-1 15 12 -3 0
-1 11 12 -3 0
-1 16 12 -3 0
-1 15 12 -3 0
-1 11 12 -3 0
-1 16 12 -3 0
-1 15 12 -3 0
-1 11 12 -3 0
-1 16 12 -3 0
-1 15 12 -3 0
-1 11 12 -3 0
-1 16 12 -3 0
-1 15 12 -3 0
-1 11 12 -3 0
-1 16 12 -3 0
-1 15 12 -3 0
-1 11 7 9 -3 0
-1 11 7 14 9 -3 0
-1 16 7 9 -3 0
-1 16 7 14 9 -3 0
-1 7 15 9 -3 0
-1 7 14 15 9 -3 0
-1 11 7 9 -3 0
-1 11 7 14 9 -3 0
-1 16 7 9 -3 0
-1 16 7 14 9 -3 0
-1 7 15 9 -3 0
-1 7 14 15 9 -3 0
-1 11 7 9 -3 0
-1 11 7 14 9 -3 0
-1 16 7 9 -3 0
-1 16 7 14 9 -3 0
-1 7 15 9 -3 0
-1 7 14 15 9 -3 0
-1 11 9 -3 0
-1 11 14 9 -3 0
-1 16 9 -3 0
-1 16 14 9 -3 0
-1 15 9 -3 0
-1 14 15 9 -3 0
-1 11 9 -3 0
-1 11 14 9 -3 0
-1 16 9 -3 0
-1 16 14 9 -3 0
-1 15 9 -3 0
-1 14 15 9 -3 0
-1 11 9 -3 0
-1 11 14 9 -3 0
-1 16 9 -3 0
-1 16 14 9 -3 0
-1 15 9 -3 0
-1 14 15 9 -3 0
-1 11 9 -3 0
-1 11 14 9 -3 0
-1 16 9 -3 0
-1 16 14 9 -3 0
-1 15 9 -3 0
-1 14 15 9 -3 0
-1 11 9 -3 0
-1 11 14 9 -3 0
-1 16 9 -3 0
-1 16 14 9 -3 0
-1 15 9 -3 0
-1 14 15 9 -3 0
-1 11 9 -3 0
-1 11 14 9 -3 0
-1 16 9 -3 0
-1 16 14 9 -3 0
-1 15 9 -3 0
-1 14 15 9 -3 0
-1 11 7 -3 0
-1 11 7 14 -3 0
-1 16 7 -3 0
-1 16 7 14 -3 0
-1 7 15 -3 0
-1 7 14 15 -3 0
-1 11 7 -3 0
-1 11 7 14 -3 0
-1 16 7 -3 0
-1 16 7 14 -3 0
-1 7 15 -3 0
-1 7 14 15 -3 0
-1 11 7 -3 0
-1 11 7 14 -3 0
-1 16 7 -3 0
-1 16 7 14 -3 0
-1 7 15 -3 0
-1 7 14 15 -3 0
-1 11 -3 0
-1 11 14 -3 0
-1 16 -3 0
-1 16 14 -3 0
-1 15 -3 0
-1 14 15 -3 0
-1 11 -3 0
-1 11 14 -3 0
-1 16 -3 0
-1 16 14 -3 0
-1 15 -3 0
-1 14 15 -3 0
-1 11 -3 0
-1 11 14 -3 0
-1 16 -3 0
-1 16 14 -3 0
-1 15 -3 0
-1 14 15 -3 0
-1 11 -3 0
-1 11 14 -3 0
-1 16 -3 0
-1 16 14 -3 0
-1 15 -3 0
-1 14 15 -3 0
-1 11 -3 0
-1 11 14 -3 0
-1 16 -3 0
-1 16 14 -3 0
-1 15 -3 0
-1 14 15 -3 0
-1 11 -3 0
-1 11 14 -3 0
-1 16 -3 0
-1 16 14 -3 0
-1 15 -3 0
-1 14 15 -3 0
-1 11 7 -3 0
-1 11 7 14 -3 0
-1 16 7 -3 0
-1 16 7 14 -3 0
-1 7 15 -3 0
-1 7 14 15 -3 0
-1 11 7 -3 0
-1 11 7 14 -3 0
-1 16 7 -3 0
-1 16 7 14 -3 0
-1 7 15 -3 0
-1 7 14 15 -3 0
-1 11 7 -3 0
-1 11 7 14 -3 0
-1 16 7 -3 0
-1 16 7 14 -3 0
-1 7 15 -3 0
-1 7 14 15 -3 0
-1 11 -3 0
-1 11 14 -3 0
-1 16 -3 0
-1 16 14 -3 0
-1 15 -3 0
-1 14 15 -3 0
-1 11 -3 0
-1 11 14 -3 0
-1 16 -3 0
-1 16 14 -3 0
-1 15 -3 0
-1 14 15 -3 0
-1 11 -3 0
-1 11 14 -3 0
-1 16 -3 0
-1 16 14 -3 0
-1 15 -3 0
-1 14 15 -3 0
-1 11 -3 0
-1 11 14 -3 0
-1 16 -3 0
-1 16 14 -3 0
-1 15 -3 0
-1 14 15 -3 0
-1 11 -3 0
-1 11 14 -3 0
-1 16 -3 0
-1 16 14 -3 0
-1 15 -3 0
-1 14 15 -3 0
-1 11 -3 0
-1 11 14 -3 0
-1 16 -3 0
-1 16 14 -3 0
-1 15 -3 0
-1 14 15 -3 0
-1 0
-1 0
-1 0
-1 0
-1 0
-1 0
-1 0
-1 0
-1 0
-1 0
-1 0
