p cnf 16 144
-15 0
-2 0
-4 -14 0
-8 0
-13 -6 0
-13 -16 0
-11 7 0
1 9 0
-11 -7 0
-11 7 0
-13 0
-8 -7 0
-5 -1 0
4 0
1 -12 0
-3 0
-4 -13 0
-14 -13 0
-2 -16 0
1 -6 0
-1 9 15 0
1 0
-2 -10 0
-2 -6 0
-4 -10 0
-8 7 0
5 3 -2 0
-5 0
4 0
-12 -16 0
-5 -3 0
-2 -12 0
5 1 3 0
1 0
-8 0
-8 0
4 0
-8 0
1 0
-11 0
-1 -7 0
-6 -12 0
4 0
1 0
-3 -7 0
9 15 0
-5 -7 0
9 -6 0
-14 0
-11 0
1 9 0
-12 0
4 0
-1 4 14 13 2 6 12 10 16 0
-8 0
-5 0
-3 4 14 13 2 6 12 10 16 0
-3 0
1 0
-8 0
-14 -16 0
4 0
-8 0
-13 -10 0
-11 0
1 0
1 -16 0
-13 0
-6 0
-11 -8 0
-8 7 0
-5 4 14 13 2 6 12 10 16 0
-5 0
-4 -2 0
1 11 3 0
5 1 3 0
7 -13 0
-13 -2 0
-12 0
-16 0
1 -4 0
-2 -10 0
1 -14 0
1 0
4 0
1 0
-13 0
-11 -8 0
-6 -10 0
-3 -2 0
-13 -12 0
-2 0
1 0
5 1 3 7 0
9 0
1 -15 0
-11 7 0
-7 0
9 15 0
1 0
-9 -15 0
-11 0
-4 -6 0
-8 0
-4 -12 0
-10 -16 0
-12 0
-14 -10 0
1 -9 0
1 7 0
-13 0
-14 -6 0
-11 0
-6 -16 0
-16 0
-12 -10 0
-1 -3 0
-16 0
-8 0
-7 0
9 15 2 0
-5 0
-11 0
-5 -3 0
-4 -16 0
-8 0
-2 0
-11 -8 0
-13 0
-7 0
-7 4 14 13 2 6 12 10 16 0
1 7 2 0
-15 -14 0
-5 0
-3 0
-8 7 0
-11 0
-12 0
-14 -12 0
3 -10 0
-14 -2 0
4 0
9 15 0
-11 0
