p cnf 8 64
1 -4 -6 0
-3 0
-1 3 -4 8 0
-3 0
-2 -4 -7 0
-3 0
-1 3 -4 8 0
-1 3 -4 8 0
-2 -4 -7 0
1 4 8 0
-3 0
-1 3 -4 8 0
-1 3 -4 8 0
-1 3 -4 8 0
5 -6 -8 0
-2 -4 -7 0
5 -6 -8 0
-2 -4 -7 0
1 4 8 0
1 4 8 0
-2 -4 -7 0
1 4 8 0
-1 3 -4 8 0
-2 -4 -7 0
-2 -4 -7 0
1 4 8 0
1 4 8 0
1 -4 -6 0
-1 3 -4 8 0
5 -6 -8 0
1 -4 -6 0
5 -6 -8 0
1 -4 -6 0
5 -6 -8 0
-2 -4 -7 0
-1 3 -4 8 0
-3 0
-1 3 -4 8 0
1 4 8 0
5 -6 -8 0
5 -6 -8 0
-1 3 -4 8 0
-3 0
1 4 8 0
-1 3 -4 8 0
1 4 8 0
1 -4 -6 0
-2 -4 -7 0
1 4 8 0
5 -6 -8 0
-2 -4 -7 0
-3 0
-2 -4 -7 0
5 -6 -8 0
5 -6 -8 0
1 -4 -6 0
-1 3 -4 8 0
-2 -4 -7 0
5 -6 -8 0
-3 0
-1 3 -4 8 0
5 -6 -8 0
-1 3 -4 8 0
-1 3 -4 8 0
