p cnf 16 147
4 0
-5 -14 0
-7 -8 0
-5 0
1 0
-13 0
-7 -11 0
-12 0
-5 -4 0
-2 0
1 -15 0
1 0
-7 0
1 6 0
-16 0
4 0
-3 -12 0
-3 -10 0
-6 0
-6 7 3 10 16 13 2 8 4 12 9 11 0
1 -5 0
-8 0
-2 -4 0
1 0
-7 -13 0
4 0
1 0
1 6 0
-5 0
-10 -4 0
-7 -2 0
1 0
-3 0
1 6 2 0
-4 -9 0
-10 -8 0
1 -16 0
-3 -2 0
-13 0
-13 -12 0
-1 7 3 10 16 13 2 8 4 12 9 11 0
-10 -16 0
1 0
-13 -9 0
-6 0
-2 -11 0
-10 -2 0
-7 -12 0
-14 -4 0
-12 -9 0
-9 0
-8 0
-8 -11 0
-1 -5 0
-13 -11 0
-6 0
-1 -14 0
1 0
-5 -15 0
1 -11 0
-14 -3 0
-7 -11 0
-16 -13 0
-7 -8 0
-16 -2 0
-12 0
-3 0
-1 -15 0
-12 0
-2 -12 0
-13 -4 0
-7 -10 0
-3 -16 0
-14 -10 0
-16 -4 0
-7 -9 0
-8 0
-8 -9 0
-2 0
1 6 0
-10 0
-10 0
1 -7 0
-14 0
1 -8 0
-7 0
-2 -9 0
-6 0
-9 -11 0
-8 -11 0
-10 -12 0
1 -12 0
-15 -14 0
-7 -16 0
-8 -12 0
-16 0
-10 -13 0
1 0
1 -7 0
-5 -3 0
-4 -12 0
-7 0
-3 0
1 -10 0
-1 -6 0
-13 0
1 0
-3 -8 0
1 -14 0
-10 -9 0
-16 -9 0
-13 -8 0
-10 -11 0
-3 -13 0
1 -8 0
-3 -11 0
-15 0
-16 -12 0
-13 -2 0
-15 0
6 -13 0
-11 0
1 -11 0
-8 -4 0
-16 -11 0
-2 0
-2 -8 0
-3 0
-2 0
-3 0
1 -4 0
-13 0
-13 0
1 0
-2 -9 0
-7 -4 0
-12 -11 0
-11 0
-16 -8 0
-11 0
-7 -3 0
-4 -11 0
-3 -9 0
-3 -4 0
1 -3 0
1 0
1 0
