p cnf 16 128
-6 8 -14 0
-4 9 -12 -14 0
5 -9 13 14 0
-1 2 -9 10 0
-3 14 -16 0
7 -11 0
10 0
-3 15 0
3 8 0
2 0
-3 15 0
-5 9 15 0
-2 -7 12 -15 0
-16 0
-1 -3 -15 0
-3 -6 16 0
7 -11 0
7 -16 0
-3 -6 0
-3 14 -16 0
-5 0
10 -12 0
5 7 10 12 0
-5 -11 0
-2 -7 12 -15 0
-3 -4 5 7 0
-3 -4 5 7 0
10 -12 0
-3 -6 16 0
-3 15 0
-3 14 0
-1 -3 7 0
-4 -7 -9 0
-3 -6 16 0
8 0
-4 9 -12 -14 0
14 16 0
10 -12 0
1 -9 -10 0
1 2 -8 16 0
14 0
1 -8 -9 11 0
12 -15 0
-2 14 0
5 -9 13 14 0
-2 -5 -15 0
7 -16 0
7 -12 -16 0
-11 0
8 -9 -12 0
-2 -5 -15 0
-12 0
-1 -3 7 0
10 0
10 0
4 12 -14 0
-2 -9 -15 0
-2 -9 -15 0
-1 -13 0
1 -5 9 0
-1 -8 -12 0
14 16 0
14 16 0
1 -8 -9 11 0
-3 -6 0
-3 14 -16 0
3 8 0
1 4 0
-3 14 0
8 -9 -12 0
-9 -16 0
-2 -9 -15 0
7 -12 -16 0
-9 -16 0
2 3 8 -16 0
-4 -7 -9 0
-5 0
1 3 -15 0
-6 16 0
14 0
-12 0
-4 -7 -9 0
1 2 -8 16 0
-5 9 15 0
-12 0
4 7 -15 0
-2 -7 12 -15 0
-3 -4 5 7 0
-1 -11 13 0
-6 8 10 15 0
-2 -16 0
12 -15 0
4 7 -15 0
4 -6 -11 0
4 -6 -15 16 0
-1 -6 13 15 0
-6 0
7 -11 0
-1 -3 4 -8 0
3 -8 -16 0
8 0
-15 0
14 16 0
-7 0
-4 9 -12 -14 0
7 -16 0
-7 0
-5 9 15 0
10 -12 0
-3 14 0
9 0
-1 -8 -12 0
-5 16 0
7 -12 -16 0
-7 -11 14 0
8 -9 -12 0
-3 0
1 -9 -10 0
-6 0
3 -8 -16 0
9 0
-6 0
-2 -7 12 -15 0
-1 -8 -12 0
-3 15 0
8 0
10 -12 0
4 7 -15 0
