p cnf 16 294
-10 0
-8 0
-10 -8 0
-7 0
-4 0
-2 0
-5 0
6 0
6 0
6 0
6 0
6 0
6 0
6 0
6 0
6 0
6 0
6 0
-3 0
-11 0
-9 0
-12 0
-13 0
-9 -11 0
-12 -11 0
-11 -13 0
-12 -9 0
-9 -13 0
-12 -13 0
-14 0
-15 0
-16 0
-14 -15 0
-14 -16 0
-15 -16 0
-1 0
-1 0
-1 0
-1 3 0
-1 0
-1 0
-1 12 9 11 13 -3 0
-1 9 11 13 -3 0
-1 9 15 11 13 -3 0
-1 12 9 11 13 -3 0
-1 9 11 13 -3 0
-1 9 15 11 13 -3 0
-1 12 9 11 13 16 -3 0
-1 9 11 13 16 -3 0
-1 9 15 11 13 16 -3 0
-1 12 11 13 -3 0
-1 11 13 -3 0
-1 15 11 13 -3 0
-1 12 11 13 -3 0
-1 11 13 -3 0
-1 15 11 13 -3 0
-1 12 11 13 16 -3 0
-1 11 13 16 -3 0
-1 15 11 13 16 -3 0
-1 12 11 13 -3 0
-1 11 13 -3 0
-1 15 11 13 -3 0
-1 12 11 13 -3 0
-1 11 13 -3 0
-1 15 11 13 -3 0
-1 12 11 13 16 -3 0
-1 11 13 16 -3 0
-1 15 11 13 16 -3 0
-1 12 9 13 -3 0
-1 9 13 -3 0
-1 9 15 13 -3 0
-1 12 9 13 -3 0
-1 9 13 -3 0
-1 9 15 13 -3 0
-1 12 9 13 16 -3 0
-1 9 13 16 -3 0
-1 9 15 13 16 -3 0
-1 12 13 -3 0
-1 13 -3 0
-1 15 13 -3 0
-1 12 13 -3 0
-1 13 -3 0
-1 15 13 -3 0
-1 12 13 16 -3 0
-1 13 16 -3 0
-1 15 13 16 -3 0
-1 12 13 -3 0
-1 13 -3 0
-1 15 13 -3 0
-1 12 13 -3 0
-1 13 -3 0
-1 15 13 -3 0
-1 12 13 16 -3 0
-1 13 16 -3 0
-1 15 13 16 -3 0
-1 12 9 13 -3 0
-1 9 13 -3 0
-1 9 15 13 -3 0
-1 12 9 13 -3 0
-1 9 13 -3 0
-1 9 15 13 -3 0
-1 12 9 13 16 -3 0
-1 9 13 16 -3 0
-1 9 15 13 16 -3 0
-1 12 13 -3 0
-1 13 -3 0
-1 15 13 -3 0
-1 12 13 -3 0
-1 13 -3 0
-1 15 13 -3 0
-1 12 13 16 -3 0
-1 13 16 -3 0
-1 15 13 16 -3 0
-1 12 13 -3 0
-1 13 -3 0
-1 15 13 -3 0
-1 12 13 -3 0
-1 13 -3 0
-1 15 13 -3 0
-1 12 13 16 -3 0
-1 13 16 -3 0
-1 15 13 16 -3 0
-1 12 9 11 -3 0
-1 12 9 14 11 -3 0
-1 9 11 -3 0
-1 9 14 11 -3 0
-1 9 15 11 -3 0
-1 9 14 15 11 -3 0
-1 12 9 11 -3 0
-1 12 9 14 11 -3 0
-1 9 11 -3 0
-1 9 14 11 -3 0
-1 9 15 11 -3 0
-1 9 14 15 11 -3 0
-1 12 9 11 16 -3 0
-1 12 9 14 11 16 -3 0
-1 9 11 16 -3 0
-1 9 14 11 16 -3 0
-1 9 15 11 16 -3 0
-1 9 14 15 11 16 -3 0
-1 12 11 -3 0
-1 12 14 11 -3 0
-1 11 -3 0
-1 14 11 -3 0
-1 15 11 -3 0
-1 14 15 11 -3 0
-1 12 11 -3 0
-1 12 14 11 -3 0
-1 11 -3 0
-1 14 11 -3 0
-1 15 11 -3 0
-1 14 15 11 -3 0
-1 12 11 16 -3 0
-1 12 14 11 16 -3 0
-1 11 16 -3 0
-1 14 11 16 -3 0
-1 15 11 16 -3 0
-1 14 15 11 16 -3 0
-1 12 11 -3 0
-1 12 14 11 -3 0
-1 11 -3 0
-1 14 11 -3 0
-1 15 11 -3 0
-1 14 15 11 -3 0
-1 12 11 -3 0
-1 12 14 11 -3 0
-1 11 -3 0
-1 14 11 -3 0
-1 15 11 -3 0
-1 14 15 11 -3 0
-1 12 11 16 -3 0
-1 12 14 11 16 -3 0
-1 11 16 -3 0
-1 14 11 16 -3 0
-1 15 11 16 -3 0
-1 14 15 11 16 -3 0
-1 12 9 -3 0
-1 12 9 14 -3 0
-1 9 -3 0
-1 9 14 -3 0
-1 9 15 -3 0
-1 9 14 15 -3 0
-1 12 9 -3 0
-1 12 9 14 -3 0
-1 9 -3 0
-1 9 14 -3 0
-1 9 15 -3 0
-1 9 14 15 -3 0
-1 12 9 16 -3 0
-1 12 9 14 16 -3 0
-1 9 16 -3 0
-1 9 14 16 -3 0
-1 9 15 16 -3 0
-1 9 14 15 16 -3 0
-1 12 -3 0
-1 12 14 -3 0
-1 -3 0
-1 14 -3 0
-1 15 -3 0
-1 14 15 -3 0
-1 12 -3 0
-1 12 14 -3 0
-1 -3 0
-1 14 -3 0
-1 15 -3 0
-1 14 15 -3 0
-1 12 16 -3 0
-1 12 14 16 -3 0
-1 16 -3 0
-1 14 16 -3 0
-1 15 16 -3 0
-1 14 15 16 -3 0
-1 12 -3 0
-1 12 14 -3 0
-1 -3 0
-1 14 -3 0
-1 15 -3 0
-1 14 15 -3 0
-1 12 -3 0
-1 12 14 -3 0
-1 -3 0
-1 14 -3 0
-1 15 -3 0
-1 14 15 -3 0
-1 12 16 -3 0
-1 12 14 16 -3 0
-1 16 -3 0
-1 14 16 -3 0
-1 15 16 -3 0
-1 14 15 16 -3 0
-1 12 9 -3 0
-1 12 9 14 -3 0
-1 9 -3 0
-1 9 14 -3 0
-1 9 15 -3 0
-1 9 14 15 -3 0
-1 12 9 -3 0
-1 12 9 14 -3 0
-1 9 -3 0
-1 9 14 -3 0
-1 9 15 -3 0
-1 9 14 15 -3 0
-1 12 9 16 -3 0
-1 12 9 14 16 -3 0
-1 9 16 -3 0
-1 9 14 16 -3 0
-1 9 15 16 -3 0
-1 9 14 15 16 -3 0
-1 12 -3 0
-1 12 14 -3 0
-1 -3 0
-1 14 -3 0
-1 15 -3 0
-1 14 15 -3 0
-1 12 -3 0
-1 12 14 -3 0
-1 -3 0
-1 14 -3 0
-1 15 -3 0
-1 14 15 -3 0
-1 12 16 -3 0
-1 12 14 16 -3 0
-1 16 -3 0
-1 14 16 -3 0
-1 15 16 -3 0
-1 14 15 16 -3 0
-1 12 -3 0
-1 12 14 -3 0
-1 -3 0
-1 14 -3 0
-1 15 -3 0
-1 14 15 -3 0
-1 12 -3 0
-1 12 14 -3 0
-1 -3 0
-1 14 -3 0
-1 15 -3 0
-1 14 15 -3 0
-1 12 16 -3 0
-1 12 14 16 -3 0
-1 16 -3 0
-1 14 16 -3 0
-1 15 16 -3 0
-1 14 15 16 -3 0
-1 0
-1 0
-1 0
-1 0
-1 0
-1 0
-1 0
-1 0
-1 0
-1 0
