p cnf 16 128
7 12 0
-1 -2 0
10 -12 -13 0
10 -14 0
10 -12 -13 0
-9 12 0
-10 -16 0
10 -12 -13 0
7 12 0
-1 -2 0
-1 -3 7 -15 0
6 -10 -11 -15 0
10 -14 0
10 -12 -13 0
-7 0
-7 0
-2 -16 0
-10 -16 0
-6 -10 -16 0
2 15 0
-1 -3 7 -15 0
-7 0
6 -10 -11 -15 0
-10 -16 0
10 -14 0
10 -12 -13 0
-10 -16 0
7 12 0
10 -12 -13 0
7 12 0
-2 -16 0
-2 -16 0
6 -10 -11 -15 0
-10 -16 0
-10 -16 0
-6 -10 -16 0
7 12 0
-7 0
6 -10 -11 -15 0
10 -12 -13 0
-1 -3 7 -15 0
-1 -3 7 -15 0
-1 -3 7 -15 0
10 -14 0
6 -10 -11 -15 0
-1 -2 0
7 12 0
-2 -16 0
10 -12 -13 0
1 0
10 -14 0
10 -14 0
7 12 0
1 0
-1 -2 0
6 -10 -11 -15 0
7 12 0
6 -10 -11 -15 0
-1 -2 0
-6 -10 -16 0
6 -10 -11 -15 0
-1 -2 0
7 12 0
1 0
10 -12 -13 0
-10 -16 0
-7 0
-9 12 0
-10 -16 0
-6 -10 -16 0
-1 -3 7 -15 0
7 12 0
-10 -16 0
10 -14 0
6 -10 -11 -15 0
7 12 0
-10 -16 0
10 -12 -13 0
10 -12 -13 0
-9 12 0
10 -14 0
-9 12 0
10 -14 0
-10 -16 0
7 12 0
-2 -16 0
10 -14 0
2 15 0
-7 0
-9 12 0
-6 -10 -16 0
-10 -16 0
-1 -3 7 -15 0
-2 -16 0
-9 12 0
7 12 0
1 0
-1 -3 7 -15 0
7 12 0
1 0
6 -10 -11 -15 0
-1 -3 7 -15 0
7 12 0
-10 -16 0
6 -10 -11 -15 0
1 0
-1 -3 7 -15 0
10 -12 -13 0
-9 12 0
-7 0
-1 -3 7 -15 0
-10 -16 0
2 15 0
-6 -10 -16 0
7 12 0
-7 0
10 -12 -13 0
-1 -2 0
-1 -3 7 -15 0
6 -10 -11 -15 0
-2 -16 0
-2 -16 0
7 12 0
10 -14 0
2 15 0
10 -14 0
-2 -16 0
-9 12 0
