p cnf 12 768
-3 9 0
5 7 10 12 0
8 10 -11 0
-1 -2 0
-3 -7 0
8 10 -11 0
3 -5 0
3 -5 0
4 12 0
2 8 -12 0
-4 7 10 12 0
-7 0
-3 -12 0
-1 7 0
-7 0
2 8 -12 0
4 -10 0
-1 7 0
-12 0
4 0
4 8 9 11 0
1 6 0
-6 -11 -12 0
1 -5 -6 11 0
6 0
-3 -4 -6 10 0
1 2 -3 -9 0
3 -5 -8 -12 0
-8 11 0
2 4 0
2 8 -12 0
4 7 11 0
4 0
6 0
-1 -10 0
2 7 -8 0
-3 -4 -12 0
10 12 0
-1 -3 4 8 0
3 0
1 3 9 0
1 4 -11 0
-8 11 0
-2 8 -12 0
-1 -8 -9 0
8 10 0
7 -11 0
3 -5 -8 -12 0
1 -5 -6 11 0
-1 -7 9 -11 0
4 -6 0
4 -10 0
8 10 0
-6 -11 -12 0
2 8 -12 0
1 2 -3 -9 0
8 10 -11 0
-3 -7 0
-8 0
1 6 0
4 0
-3 -4 -12 0
5 7 -10 -12 0
3 -5 0
4 12 0
-1 -2 0
2 -4 -7 11 0
4 0
5 7 10 12 0
1 4 -11 0
5 7 10 12 0
-3 -6 -11 0
7 -11 0
5 7 -10 -12 0
1 9 0
1 6 0
2 9 12 0
1 3 9 0
2 9 12 0
7 -11 0
-5 0
2 -3 11 0
4 8 9 11 0
5 -6 -9 -11 0
4 11 0
4 11 0
10 12 0
10 0
4 12 0
-1 -10 0
-3 -4 -12 0
-2 3 -9 0
-5 0
4 12 0
5 7 10 12 0
3 5 -8 -12 0
-1 -4 -10 11 0
2 4 0
1 9 12 0
-1 -2 -7 11 0
-1 -2 -7 11 0
10 0
4 -7 -10 -12 0
7 -11 0
10 12 0
1 2 -3 -9 0
-2 3 -9 0
2 -10 -11 12 0
-5 0
2 4 0
-1 -2 -5 -10 0
4 12 0
1 4 -11 0
-3 -4 7 10 0
-12 0
2 4 0
10 0
2 -10 -11 12 0
1 9 0
-1 -2 -5 -10 0
1 2 -3 0
2 -4 -7 11 0
4 -6 0
2 7 -8 0
-3 -12 0
-7 -8 0
-3 -6 -11 0
-5 0
-3 -6 -11 0
-3 -12 0
1 9 12 0
4 -6 0
-12 0
-3 -4 -12 0
6 0
-12 0
2 7 -8 0
1 2 -3 -9 0
2 -10 12 0
7 -11 0
5 -6 -9 -11 0
-3 -12 0
-3 -12 0
-6 -11 -12 0
-3 -4 -6 10 0
4 -7 -10 -12 0
-3 -4 -6 10 0
-7 8 10 0
-1 -4 -10 11 0
-3 -4 -12 0
4 -6 0
-1 4 10 -12 0
-3 -4 -12 0
3 5 -8 -12 0
-1 4 10 -12 0
-1 -10 0
-5 6 -10 -11 0
-8 11 0
10 0
1 9 0
2 -9 0
-2 8 -12 0
1 2 0
-1 -8 -9 0
-1 7 0
-1 -2 -6 11 0
4 12 0
1 3 11 0
-1 -2 -6 11 0
-1 -3 4 8 0
-1 7 0
2 4 0
10 12 0
2 7 -8 0
-1 -3 4 8 0
3 5 -8 -12 0
3 -5 0
-3 -4 7 10 0
1 2 -3 0
4 -7 -10 -12 0
6 0
5 -6 -9 -11 0
-3 -4 -6 10 0
2 -10 0
2 8 -12 0
4 -7 -10 -12 0
4 11 0
2 -3 -9 -10 0
-2 8 -12 0
-7 0
-3 -7 0
5 7 10 12 0
2 -4 -7 11 0
1 2 0
-3 -4 -12 0
-8 0
4 8 9 11 0
-1 -2 -7 11 0
-1 -2 0
-3 -8 -9 12 0
-1 -2 -5 -10 0
-3 -7 0
-1 -8 -9 0
2 7 -8 0
1 -5 -6 11 0
-8 0
-5 6 -10 -11 0
-11 0
-4 7 10 12 0
1 2 -3 0
-1 7 0
-11 0
2 -3 -9 -10 0
-6 -11 -12 0
-1 -2 0
-1 -7 9 -11 0
-1 -2 -5 -10 0
-1 4 10 -12 0
-8 0
2 7 -8 0
1 -3 9 0
-1 7 0
10 12 0
-1 -2 -6 11 0
-1 -10 0
-3 -4 -12 0
5 7 10 12 0
-8 0
3 -5 0
-2 3 -9 0
2 -4 -7 11 0
-1 -2 -5 -10 0
-1 7 0
5 7 10 12 0
-1 -3 4 8 0
4 12 0
1 3 9 0
-12 0
-5 6 -10 -11 0
1 -5 -6 11 0
-8 11 0
-3 -4 -12 0
3 -5 -8 -12 0
4 8 9 11 0
-6 -11 -12 0
-5 6 -10 -11 0
-3 -8 -9 12 0
1 9 12 0
1 2 -3 0
2 -4 -7 11 0
-3 -8 -9 12 0
2 -10 0
4 0
2 7 -8 0
10 0
10 12 0
4 11 0
4 -7 -10 -12 0
2 -3 -9 -10 0
3 -5 0
4 12 0
-1 -2 -5 -10 0
-1 -10 0
-3 -8 -9 12 0
4 0
-1 -8 -9 0
-1 -10 0
4 8 9 11 0
-1 -2 0
-3 9 0
-7 0
-1 -8 -9 0
4 0
-1 -8 -9 0
-1 7 0
-8 0
1 2 0
-5 6 -10 -11 0
-12 0
-1 -10 0
1 9 12 0
4 -6 0
-2 8 -12 0
-3 -12 0
3 -5 0
3 0
-6 -11 -12 0
4 8 9 11 0
5 7 -10 -12 0
4 0
6 0
4 7 11 0
-3 -12 0
4 11 0
-2 8 -12 0
2 7 -8 0
4 -7 -10 -12 0
3 0
-3 -4 -6 10 0
-3 9 0
-3 9 0
5 7 10 12 0
5 -6 -9 -11 0
-1 -2 0
-3 -4 -12 0
1 2 0
-1 -8 -9 0
5 7 10 12 0
4 -6 0
4 -6 0
1 3 11 0
2 -10 0
4 -7 -10 -12 0
2 8 -12 0
2 -4 -7 11 0
-7 -8 0
-12 0
4 11 0
-1 -2 -5 -10 0
-11 0
2 0
5 7 10 12 0
-1 -3 4 8 0
-11 0
4 7 11 0
-7 0
-2 3 -9 0
-3 -8 -9 12 0
1 2 -3 -9 0
8 10 0
4 0
-1 -2 -7 11 0
-5 6 -10 -11 0
-3 -4 -6 10 0
2 -10 -11 12 0
4 11 0
-4 7 10 12 0
-3 9 0
-1 4 10 -12 0
-6 -11 -12 0
1 6 0
2 4 0
1 2 -3 -9 0
-1 -2 -5 -10 0
2 -3 -9 -10 0
2 -3 -9 -10 0
4 -6 0
2 7 10 0
-3 -6 -11 0
4 -10 0
10 12 0
10 0
-1 -8 -9 0
4 -6 0
4 -6 0
2 -3 -9 -10 0
2 -9 0
-3 -6 -11 0
1 9 12 0
2 0
-11 0
-12 0
-7 -8 0
2 7 -8 0
-3 9 0
1 2 0
4 7 11 0
3 0
2 7 -8 0
1 -3 9 0
8 10 0
8 10 0
5 7 -10 -12 0
4 11 0
8 10 0
-4 7 10 12 0
2 9 12 0
-8 0
2 0
-1 7 0
-2 8 -12 0
5 7 -10 -12 0
-3 -8 -9 12 0
4 8 9 11 0
1 3 11 0
-8 11 0
1 6 0
1 4 -11 0
4 12 0
2 -10 0
2 -10 -11 12 0
-3 -4 -12 0
-1 -10 0
2 -3 11 0
4 12 0
1 -3 9 0
1 3 9 0
8 10 -11 0
2 -4 -7 11 0
5 -6 -9 -11 0
-3 -7 0
2 -9 0
2 -10 12 0
-12 0
8 10 0
10 0
-12 0
-8 11 0
-5 6 -10 -11 0
8 10 0
-1 -4 -10 11 0
2 -9 0
2 7 -8 0
1 9 0
2 -4 -7 11 0
-1 4 10 -12 0
4 -10 0
-3 -12 0
-1 -2 0
-1 -2 -5 -10 0
-3 -7 0
-7 -8 0
1 4 -11 0
2 9 12 0
3 -5 -8 -12 0
-1 -4 -10 11 0
1 2 0
-1 -2 -5 -10 0
-1 4 10 -12 0
-3 -4 -12 0
-1 -4 -10 11 0
10 0
1 9 12 0
4 -10 0
-3 -7 0
4 11 0
-1 4 10 -12 0
4 -6 0
1 2 0
-1 -2 -7 11 0
-3 -7 0
1 4 -11 0
2 -10 12 0
3 0
1 3 11 0
-1 -4 -10 11 0
1 6 0
4 11 0
2 -3 -9 -10 0
-1 -2 -5 -10 0
1 2 0
1 -5 -6 11 0
1 9 0
-5 6 -10 -11 0
-3 -7 0
-11 0
-3 9 0
2 7 -8 0
-11 0
4 -6 0
4 -6 0
4 -6 0
-3 -4 -12 0
1 2 -3 0
-1 4 10 -12 0
4 -7 -10 -12 0
2 -3 -9 -10 0
-3 9 0
1 2 -3 0
1 3 9 0
-3 -4 -6 10 0
-4 7 10 12 0
-7 0
4 8 9 11 0
-1 -8 -9 0
1 9 12 0
8 10 -11 0
1 9 12 0
2 7 10 0
-1 -2 -5 -10 0
1 3 9 0
2 4 0
2 7 10 0
4 0
1 9 12 0
4 -10 0
-1 -2 -6 11 0
-1 -8 -9 0
1 9 0
-1 -2 -7 11 0
-12 0
4 11 0
-1 -2 -5 -10 0
-5 0
-12 0
-7 0
7 -11 0
-3 -8 -9 12 0
3 -5 -8 -12 0
2 -4 -7 11 0
5 7 10 12 0
8 10 0
-3 9 0
1 6 0
-5 0
-3 -4 7 10 0
-3 -8 -9 12 0
-3 -4 -12 0
7 -11 0
2 -3 -9 -10 0
-3 -7 0
1 6 0
2 -10 -11 12 0
10 12 0
8 10 -11 0
2 -10 -11 12 0
-7 0
2 -3 11 0
2 7 -8 0
10 12 0
-1 -2 -5 -10 0
-1 4 10 -12 0
-4 7 10 12 0
3 0
1 2 -3 0
1 -3 9 0
-3 -6 -11 0
-1 -8 -9 0
10 12 0
-1 -2 0
3 -5 -8 -12 0
-7 8 10 0
-3 -4 7 10 0
-3 -4 -12 0
-1 4 10 -12 0
-2 8 -12 0
4 7 11 0
4 11 0
-11 0
-1 -3 4 8 0
2 -10 12 0
2 7 10 0
4 12 0
-2 3 -9 0
1 6 0
7 -11 0
-8 0
-3 9 0
-3 -6 -11 0
1 2 -3 0
2 -10 0
-3 -12 0
-5 6 -10 -11 0
4 8 9 11 0
-1 -2 -5 -10 0
-1 7 0
2 9 12 0
-1 -3 4 8 0
-7 0
1 -5 -6 11 0
1 6 0
2 -4 -7 11 0
-5 6 -10 -11 0
4 -7 -10 -12 0
8 10 -11 0
-11 0
-2 3 -9 0
1 -3 9 0
2 -9 0
2 4 0
-11 0
-3 -7 0
4 0
-3 -4 -12 0
4 8 9 11 0
1 6 0
-2 8 -12 0
-1 4 10 -12 0
1 6 0
3 0
-1 -2 0
4 8 9 11 0
2 4 0
2 -10 -11 12 0
-5 6 -10 -11 0
-1 -7 9 -11 0
-1 -2 0
-12 0
7 -11 0
8 10 -11 0
8 10 -11 0
1 2 0
2 8 -12 0
-1 -2 -5 -10 0
-1 -3 4 8 0
-11 0
-3 -4 -6 10 0
-7 8 10 0
-3 -7 0
-7 8 10 0
1 9 12 0
-1 -4 -10 11 0
10 0
2 4 0
1 9 12 0
-1 -4 -10 11 0
-7 0
10 0
-3 -4 7 10 0
4 -10 0
4 12 0
2 -10 12 0
6 0
-2 3 -9 0
-8 0
-3 -7 0
1 -5 -6 11 0
-3 -7 0
1 4 -11 0
-3 -4 -12 0
10 12 0
7 -11 0
5 -6 -9 -11 0
5 7 -10 -12 0
4 -6 0
-12 0
-1 -2 -5 -10 0
-7 8 10 0
-1 -8 -9 0
-3 -4 7 10 0
2 -9 0
1 6 0
2 -9 0
-1 7 0
-6 -11 -12 0
-1 -7 9 -11 0
-5 6 -10 -11 0
-1 -7 9 -11 0
1 9 12 0
1 9 0
8 10 -11 0
-6 -11 -12 0
1 3 9 0
-3 -7 0
-1 -2 -5 -10 0
3 5 -8 -12 0
2 -9 0
-7 8 10 0
-2 8 -12 0
2 9 12 0
-7 8 10 0
2 -9 0
-11 0
-7 0
4 8 9 11 0
-3 9 0
2 8 -12 0
3 -5 -8 -12 0
2 -10 12 0
2 7 -8 0
-2 3 -9 0
4 -10 0
1 2 0
1 2 -3 0
2 7 10 0
1 2 -3 -9 0
-3 -12 0
2 -9 0
8 10 -11 0
-3 -12 0
2 -3 11 0
5 7 -10 -12 0
3 -5 0
-1 -2 0
-4 7 10 12 0
-1 -8 -9 0
1 2 -3 -9 0
8 10 -11 0
2 8 -12 0
-3 -4 -12 0
2 -10 12 0
-5 0
1 4 -11 0
-7 8 10 0
-1 4 10 -12 0
-1 -4 -10 11 0
3 -5 -8 -12 0
-1 -10 0
4 8 9 11 0
2 -3 11 0
8 10 0
-3 -4 7 10 0
4 -7 -10 -12 0
-1 -3 4 8 0
2 -10 -11 12 0
3 5 -8 -12 0
3 5 -8 -12 0
1 2 -3 0
-1 7 0
-5 6 -10 -11 0
-7 8 10 0
2 9 12 0
4 8 9 11 0
4 7 11 0
4 12 0
4 -7 -10 -12 0
1 2 0
10 12 0
4 0
-7 -8 0
1 -5 -6 11 0
1 -3 9 0
1 6 0
5 7 10 12 0
-1 4 10 -12 0
3 5 -8 -12 0
3 0
-6 -11 -12 0
-1 -10 0
-2 8 -12 0
1 -3 9 0
-3 9 0
4 -6 0
-2 3 -9 0
-1 7 0
1 3 11 0
-1 -2 -7 11 0
10 0
1 2 -3 -9 0
-8 0
10 0
4 -6 0
-1 -10 0
-5 0
1 2 -3 0
2 -10 12 0
-3 -7 0
5 -6 -9 -11 0
-1 -2 0
-3 9 0
1 9 12 0
-3 -4 -12 0
3 -5 0
4 12 0
3 -5 0
3 -5 -8 -12 0
1 9 0
10 0
-1 -2 -7 11 0
7 -11 0
3 -5 0
-7 8 10 0
4 8 9 11 0
1 2 0
1 9 0
2 0
-7 8 10 0
3 -5 -8 -12 0
-7 8 10 0
2 -3 11 0
2 -4 -7 11 0
5 -6 -9 -11 0
-7 0
5 7 10 12 0
-4 7 10 12 0
10 0
2 -9 0
1 -3 9 0
