p cnf 16 128
-6 -9 -10 0
-10 11 0
-3 4 13 14 0
-2 -4 -6 -7 0
1 4 9 13 0
3 4 10 14 0
4 16 0
1 3 -10 -11 0
-3 -7 -8 12 0
1 4 -5 16 0
-7 -13 0
7 9 -12 0
-3 6 8 0
2 7 0
4 -5 -6 8 0
-2 9 13 0
-8 -9 -10 0
-9 -10 16 0
1 4 9 13 0
-10 15 0
15 0
4 -13 -15 0
10 -13 0
4 0
1 3 -10 -11 0
1 3 -10 -11 0
2 7 0
-8 -9 -10 0
1 4 -5 16 0
1 4 9 13 0
-2 5 -13 0
7 9 -12 0
-6 -8 9 0
-6 -11 -14 0
4 7 0
5 -7 0
1 3 -10 -11 0
4 -5 -6 8 0
-14 0
8 10 13 -16 0
4 0
-1 5 -8 11 0
7 9 -12 0
-5 -11 0
15 0
-3 4 13 14 0
5 -16 0
4 0
-2 6 0
-14 0
-2 5 -13 0
-5 10 -12 13 0
-2 4 -10 11 0
-3 -9 -16 0
5 -7 0
-6 -9 -10 0
-9 -10 16 0
-3 0
1 4 -5 16 0
-2 9 13 0
-2 6 0
-2 5 -13 0
1 2 -11 12 0
-3 0
4 5 16 0
-8 0
-10 11 0
-5 10 -12 13 0
1 2 13 -15 0
3 4 10 14 0
4 16 0
-3 -7 -8 12 0
-1 -5 15 0
15 0
5 -16 0
4 -9 -14 0
-5 -11 0
-6 -9 -10 0
4 16 0
-2 -5 14 0
1 2 13 -15 0
2 -13 -15 0
2 -13 -15 0
9 -15 0
-8 -10 -16 0
-3 4 -16 0
-7 11 -14 0
1 4 9 13 0
-1 -3 -6 -16 0
-6 -8 9 0
-9 12 0
-3 6 8 0
4 5 16 0
5 -16 0
1 4 -7 10 0
-8 -10 -16 0
-7 11 -14 0
1 4 9 13 0
-8 -10 -16 0
-3 -7 -8 12 0
-7 -13 0
2 -11 14 0
9 -13 -16 0
-10 -14 0
-10 15 0
-5 0
-1 0
1 2 -11 12 0
7 9 -12 0
-8 -9 -10 0
-10 -14 0
-3 15 16 0
4 7 0
-9 10 13 -14 0
1 4 -5 16 0
5 -10 13 0
2 -11 14 0
-3 0
-1 -3 -6 -16 0
9 -15 0
4 12 0
-1 -5 -9 12 0
-1 -5 15 0
2 7 0
-9 10 13 -14 0
-2 4 -10 11 0
10 -11 -14 15 0
4 16 0
