p cnf 8 257
-5 0
-8 0
-7 0
4 0
2 0
-6 0
-3 0
-1 0
-1 0
-6 0
2 0
4 0
-1 3 0
-1 -3 0
-1 -3 0
-1 -3 0
-1 -3 0
-1 -3 0
-1 -3 0
-1 -3 0
-1 -3 0
-1 -3 0
-1 -3 0
-1 -3 0
-1 -3 0
-1 -3 0
-1 -3 0
-1 -3 0
-1 -3 0
-1 -3 0
-1 -3 0
-1 -3 0
-1 -3 0
-1 -3 0
-1 -3 0
-1 -3 0
-1 -3 0
-1 -3 0
-1 -3 0
-1 -3 0
-1 -3 0
-1 -3 0
-1 -3 0
-1 -3 0
-1 -3 0
-1 -3 0
-1 -3 0
-1 -3 0
-1 -3 0
-1 -3 0
-1 -3 0
-1 -3 0
-1 -3 0
-1 -3 0
-1 -3 0
-1 -3 0
-1 -3 0
-1 -3 0
-1 -3 0
-1 -3 0
-1 -3 0
-1 -3 0
-1 -3 0
-1 -3 0
-1 -3 0
-1 -3 0
-1 -3 0
-1 -3 0
-1 -3 0
-1 -3 0
-1 -3 0
-1 -3 0
-1 -3 0
-1 -3 0
-1 -3 0
-1 -3 0
-1 -3 0
-1 -3 0
-1 -3 0
-1 -3 0
-1 -3 0
-1 -3 0
-1 -3 0
-1 -3 0
-1 -3 0
-1 -3 0
-1 -3 0
-1 -3 0
-1 -3 0
-1 -3 0
-1 -3 0
-1 -3 0
-1 -3 0
-1 -3 0
-1 -3 0
-1 -3 0
-1 -3 0
-1 -3 0
-1 -3 0
-1 -3 0
-1 -3 0
-1 -3 0
-1 -3 0
-1 -3 0
-1 -3 0
-1 -3 0
-1 -3 0
-1 -3 0
-1 -3 0
-1 -3 0
-1 -3 0
-1 -3 0
-1 -3 0
-1 -3 0
-1 -3 0
-1 -3 0
-1 -3 0
-1 -3 0
-1 -3 0
-1 -3 0
-1 -3 0
-1 -3 0
-1 -3 0
-1 -3 0
-1 -3 0
-1 -3 0
-1 -3 0
-1 -3 0
-1 -3 0
-1 -3 0
-1 -3 0
-1 -3 0
-1 -3 0
-1 -3 0
-1 -3 0
-1 -3 0
-1 -3 0
-1 -3 0
-1 -3 0
-1 -3 0
-1 -3 0
-1 -3 0
-1 -3 0
-1 -3 0
-1 -3 0
-1 -3 0
-1 -3 0
-1 -3 0
-1 -3 0
-1 -3 0
-1 -3 0
-1 -3 0
-1 -3 0
-1 -3 0
-1 -3 0
-1 -3 0
-1 -3 0
-1 -3 0
-1 -3 0
-1 -3 0
-1 -3 0
-1 -3 0
-1 -3 0
-1 -3 0
-1 -3 0
-1 -3 0
-1 -3 0
-1 -3 0
-1 -3 0
-1 -3 0
-1 -3 0
-1 -3 0
-1 -3 0
-1 -3 0
-1 -3 0
-1 -3 0
-1 -3 0
-1 -3 0
-1 -3 0
-1 -3 0
-1 -3 0
-1 -3 0
-1 -3 0
-1 -3 0
-1 -3 0
-1 -3 0
-1 -3 0
-1 -3 0
-1 -3 0
-1 -3 0
-1 -3 0
-1 -3 0
-1 -3 0
-1 -3 0
-1 -3 0
-1 -3 0
-1 -3 0
-1 -3 0
-1 -3 0
-1 -3 0
-1 -3 0
-1 -3 0
-1 -3 0
-1 -3 0
-1 -3 0
-1 -3 0
-1 -3 0
-1 -3 0
-1 -3 0
-1 -3 0
-1 -3 0
-1 -3 0
-1 -3 0
-1 -3 0
-1 -3 0
-1 -3 0
-1 -3 0
-1 -3 0
-1 -3 0
-1 -3 0
-1 -3 0
-1 -3 0
-1 -3 0
-1 -3 0
-1 -3 0
-1 -3 0
-1 -3 0
-1 -3 0
-1 -3 0
-1 -3 0
-1 -3 0
-1 -3 0
-1 -3 0
-1 -3 0
-1 -3 0
-1 -3 0
-1 -3 0
-1 -3 0
-1 -3 0
-1 -3 0
-1 -3 0
-1 -3 0
-1 -3 0
-1 -3 0
-1 -3 0
-1 -3 0
-1 -3 0
-1 -3 0
-1 -3 0
-1 -3 0
-1 -3 0
-1 -3 0
-1 -3 0
-1 -3 0
-1 -3 0
-1 -3 0
-1 -3 0
